@relation water_potability-weka.filters.unsupervised.attribute.ReplaceMissingValues-weka.filters.unsupervised.attribute.NumericToNominal-R10-weka.filters.supervised.instance.SMOTE-C0-K5-P100.0-S1-weka.filters.unsupervised.attribute.Normalize-S1.0-T0.0-weka.filters.unsupervised.attribute.Remove-R10

@attribute Instance_number numeric
@attribute ph numeric
@attribute Hardness numeric
@attribute Solids numeric
@attribute Chloramines numeric
@attribute Sulfate numeric
@attribute Conductivity numeric
@attribute Organic_carbon numeric
@attribute Trihalomethanes numeric
@attribute Turbidity numeric
@attribute Cluster numeric

@data
0,0.505771,0.571139,0.336096,0.543891,0.680385,0.669439,0.313402,0.699753,0.286091,0
1,0.265434,0.2974,0.300611,0.491839,0.581699,0.719411,0.497319,0.450999,0.576793,1
2,0.578509,0.641311,0.321619,0.698543,0.581699,0.414652,0.562017,0.532866,0.303637,0
3,0.594055,0.605536,0.356244,0.603314,0.647347,0.31788,0.622089,0.808065,0.601015,0
4,0.649445,0.484851,0.289922,0.4849,0.514545,0.379337,0.358555,0.253606,0.496327,0
5,0.398863,0.51101,0.466746,0.563043,0.561537,0.173092,0.237538,0.43955,0.209814,0
6,0.730276,0.727768,0.466763,0.56058,0.751819,0.178659,0.44405,0.680385,0.231233,0
7,0.616846,0.565593,0.219208,0.329629,0.495155,0.512581,0.389418,0.503483,0.558031,0
8,0.505771,0.259553,0.229281,0.58334,0.39669,0.363537,0.402531,0.431527,0.405562,0
9,0.798592,0.652175,0.413152,0.68299,0.7813,0.668699,0.602598,0.577945,0.552195,1
10,0.52576,0.428336,0.527559,0.563499,0.561384,0.426503,0.512905,0.632815,0.418282,1
11,0.569609,0.621205,0.302871,0.60731,0.581699,0.319335,0.472251,0.614528,0.484348,0
12,0.508559,0.396359,0.302266,0.254719,0.435599,0.290686,0.526036,0.638987,0.377341,0
13,0.505771,0.372673,0.443475,0.507728,0.484094,0.346726,0.657885,0.614723,0.560404,1
14,0.535445,0.572788,0.460824,0.369515,0.581699,0.460186,0.422541,0.564344,0.629114,1
15,0.453377,0.505277,0.668967,0.726231,0.668941,0.586263,0.357846,0.603054,0.55329,1
16,0.503699,0.593479,0.503391,0.762645,0.581699,0.233725,0.697204,0.453616,0.532885,1
17,0.655826,0.82114,0.389457,0.512954,0.765134,0.518469,0.428634,0.573732,0.577361,0
18,0.641105,0.841247,0.314245,0.458107,0.581699,0.437101,0.409531,0.511782,0.186441,0
19,0.526504,0.605983,0.415546,0.319426,0.587319,0.504374,0.394987,0.503475,0.209926,1
20,0.505771,0.652914,0.360958,0.781363,0.581699,0.652847,0.541444,0.362194,0.507359,0
21,0.475729,0.438358,0.502796,0.431058,0.516804,0.598378,0.600929,0.619042,0.434808,1
22,0.505771,0.611356,0.275609,0.411355,0.562292,0.445516,0.459351,0.479608,0.758036,0
23,0.278748,0.542168,0.342273,0.520103,0.581699,0.459895,0.55207,0.725639,0.582061,1
24,0.385736,0.338447,0.278225,0.759675,0.566309,0.509549,0.346988,0.45589,0.638076,0
25,0.465315,0.548929,0.343114,0.651189,0.552782,0.405356,0.48659,0.641802,0.709186,0
26,0.246076,0.582151,0.543521,0.659894,0.724389,0.455186,0.444671,0.239706,0.516997,1
27,0.505771,0.356689,0.211866,0.591346,0.497121,0.205482,0.40343,0.395895,0.483054,0
28,0.505771,0.794325,0.427576,0.575191,0.756722,0.320003,0.31222,0.424059,0.480538,0
29,0.505771,0.365339,0.244186,0.680613,0.505671,0.668558,0.550523,0.421364,0.867496,0
30,0.512961,0.588314,0.244233,0.441697,0.594654,0.280887,0.219257,0.574386,0.688005,0
31,0.701821,0.519872,0.317815,0.501412,0.581699,0.47451,0.563182,0.375979,0.266113,0
32,0.745235,0.25521,0.361309,0.611312,0.507648,0.404826,0.409606,0.527295,0.68204,1
33,0.529582,0.680515,0.529255,0.508333,0.733389,0.403071,0.30823,0.354946,0.323431,1
34,0.505771,0.670489,0.237517,0.401011,0.581699,0.354105,0.381875,0.692369,0.676719,0
35,0.365416,0.524211,0.316874,0.446866,0.553464,0.45512,0.335881,0.393473,0.46362,0
36,0.260116,0.495033,0.401127,0.405974,0.446153,0.481546,0.261842,0.591072,0.380857,1
37,0.40129,0.931488,0.278478,0.450026,0.581699,0.381192,0.385632,0.655928,0.273501,0
38,0.505771,0.348293,0.322156,0.433562,0.581699,0.429559,0.776624,0.424998,0.275584,0
39,0.661942,0.548374,0.400005,0.450772,0.565512,0.376654,0.546819,0.240507,0.543393,1
40,0.505771,0.676215,0.186893,0.332477,0.511431,0.293632,0.618348,0.340247,0.389488,0
41,0.380853,0.534807,0.268247,0.598186,0.533122,0.268662,0.305767,0.477314,0.564345,0
42,0.510412,0.693738,0.467266,0.505834,0.729981,0.263262,0.340734,0.530578,0.705727,1
43,0.708621,0.56362,0.158489,0.511174,0.591853,0.26529,0.832092,0.576785,0.612726,0
44,0.339889,0.493005,0.348856,0.342806,0.581699,0.389013,0.630967,0.53686,0.584761,1
45,0.407352,0.614521,0.579341,0.534822,0.581699,0.565095,0.53413,0.623048,0.508175,1
46,0.496705,0.588361,0.168361,0.321777,0.530086,0.3667,0.424725,0.702998,0.330064,0
47,0.763069,0.456827,0.253468,0.408515,0.506639,0.24888,0.302332,0.630647,0.48209,0
48,0.505771,0.299097,0.559793,0.467313,0.498636,0.505099,0.62833,0.581409,0.558818,1
49,0.625518,0.554094,0.348327,0.35719,0.536552,0.390366,0.443231,0.382866,0.411446,0
50,0.505771,0.438738,0.446118,0.52401,0.485243,0.353778,0.535711,0.608391,0.302147,1
51,0.557831,0.192336,0.191977,0.380455,0.335769,0.740981,0.28396,0.53014,0.188588,0
52,0.475178,0.353939,0.320999,0.360788,0.451813,0.63738,0.334943,0.575923,0.433369,1
53,0.653371,0.59589,0.190451,0.538458,0.598675,0.605438,0.615912,0.380465,0.443284,0
54,0.754339,0.487723,0.352389,0.519707,0.600489,0.481015,0.547235,0.271893,0.475456,0
55,0.53459,0.771369,0.497415,0.706625,0.581699,0.390283,0.526225,0.534496,0.629833,1
56,0.608629,0.692451,0.467254,0.620807,0.717691,0.524317,0.14622,0.311152,0.470903,1
57,0.357101,0.518169,0.394096,0.538408,0.556466,0.391437,0.231286,0.800647,0.569235,1
58,0.505771,0.400335,0.273251,0.624941,0.485879,0.31391,0.407044,0.575838,0.55878,0
59,0.505771,0.390377,0.332253,0.613332,0.581699,0.190077,0.552577,0.477715,0.499132,0
60,0.279006,0.67456,0.522506,0.519987,0.623126,0.153823,0.285599,0.511148,0.46377,1
61,0.456525,0.600619,0.338956,0.393234,0.564299,0.328498,0.442839,0.139359,0.467716,0
62,0.505771,0.660352,0.581365,0.66214,0.72705,0.200948,0.564256,0.532673,0.454831,1
63,0.620864,0.535785,0.399553,0.616822,0.581699,0.379222,0.390068,0.387003,0.572501,1
64,0.577554,0.291295,0.530864,0.483932,0.581699,0.410514,0.341749,0.629043,0.49512,1
65,0.443141,0.598039,0.352905,0.588806,0.581699,0.315855,0.487855,0.512208,0.711985,0
66,0.361293,0.6933,0.567314,0.675638,0.697194,0.853779,0.427325,0.614819,0.69137,1
67,0.505771,0.203244,0.444933,0.631335,0.581699,0.532458,0.350618,0.544628,0.599507,1
68,0.505771,0.594027,0.20539,0.324862,0.562342,0.265531,0.530465,0.398829,0.376203,0
69,0.518682,0.480456,0.404619,0.429361,0.625711,0.559052,0.578073,0.407709,0.41338,1
70,0.511462,0.492061,0.105447,0.27014,0.42212,0.431142,0.291173,0.724452,0.460369,0
71,0.407483,0.249798,0.540218,0.524345,0.477453,0.564641,0.260606,0.38462,0.511918,1
72,0.444091,0.302919,0.314244,0.527629,0.486126,0.656053,0.455311,0.46372,0.73281,1
73,0.619995,0.706574,0.372098,0.560999,0.581699,0.299827,0.632353,0.561162,0.45821,0
74,0.505771,0.623409,0.238703,0.410671,0.611999,0.426206,0.519994,0.394396,0.606148,0
75,0.492666,0.594606,0.415882,0.502075,0.581699,0.352413,0.449609,0.72841,0.675512,1
76,0.251039,0.403712,0.372847,0.506433,0.447469,0.220151,0.287825,0.641827,0.43725,0
77,0.265893,0.421513,0.618019,0.4957,0.561582,0.500262,0.473842,0.404342,0.418385,1
78,0.461072,0.468827,0.396463,0.423087,0.527794,0.517781,0.538142,0.462362,0.159469,0
79,0.522629,0.61696,0.518542,0.744661,0.704308,0.42743,0.260259,0.557927,0.38918,1
80,0.131753,0.675871,0.465776,0.577098,0.581699,0.40028,0.513864,0.434533,0.67375,1
81,0.394223,0.439971,0.200483,0.577591,0.581699,0.458306,0.60916,0.532673,0.436566,0
82,0.529213,0.571398,0.151794,0.481716,0.518286,0.564234,0.357553,0.652017,0.439104,0
83,0.426912,0.767236,0.442435,0.571162,0.723395,0.581674,0.385318,0.663074,0.292054,0
84,0.456811,0.313401,0.385943,0.373835,0.391751,0.685338,0.292486,0.764945,0.518287,1
85,0.443546,0.536779,0.21009,0.589225,0.581699,0.412266,0.203359,0.56635,0.408871,0
86,0.483059,0.669744,0.440652,0.589667,0.629051,0.496504,0.446895,0.519822,0.655432,1
87,0.70848,0.55043,0.347244,0.504723,0.568639,0.435464,0.527435,0.475039,0.36595,0
88,0.725389,0.917185,0.202466,0.493395,0.765978,0.535054,0.273856,0.545032,0.671671,0
89,0.62298,0.576505,0.464437,0.467588,0.705633,0.569117,0.43501,0.337845,0.208929,1
90,0.505771,0.546072,0.276365,0.571992,0.568929,0.688336,0.370536,0.554687,0.554721,0
91,0.505771,0.550164,0.482725,0.510191,0.648532,0.41833,0.269219,0.442604,0.360213,1
92,0.435689,0.690945,0.329948,0.634507,0.581699,0.191693,0.654025,0.749623,0.325731,0
93,0.644771,0.746431,0.45388,0.48817,0.694693,0.711427,0.534319,0.473678,0.10759,1
94,0.496669,0.564813,0.185337,0.402641,0.49792,0.646418,0.275394,0.447989,0.41631,0
95,0.438634,0.545696,0.43291,0.566356,0.568791,0.641048,0.522465,0.328776,0.739168,1
96,0.505562,0.628377,0.3867,0.456348,0.605025,0.265043,0.324207,0.726581,0.62668,1
97,0.392022,0.32054,0.347488,0.61334,0.430654,0.454391,0.485068,0.71027,0.683832,1
98,0.514683,0.26441,0.399088,0.457962,0.456689,0.41435,0.438435,0.511072,0.427312,1
99,0.655562,0.420189,0.337361,0.577224,0.543764,0.42932,0.30706,0.500502,0.313626,0
100,0.305051,0.433113,0.395432,0.551038,0.477818,0.29384,0.432127,0.435956,0.437494,1
101,0.524917,0.637788,0.183858,0.668302,0.581699,0.546769,0.610934,0.592052,0.648681,0
102,0.609012,0.464942,0.18908,0.558255,0.509611,0.511939,0.752717,0.418898,0.6869,0
103,0.505771,0.441108,0.588312,0.624531,0.568245,0.715675,0.593683,0.830852,0.481371,1
104,0.186574,0.51279,0.566072,0.504457,0.581699,0.501167,0.420336,0.395789,0.626811,1
105,0.606469,0.568358,0.372193,0.619866,0.652918,0.443321,0.570278,0.500427,0.458604,0
106,0.505771,0.60252,0.364803,0.517041,0.582453,0.49298,0.361035,0.558792,0.368424,0
107,0.632743,0.751511,0.152749,0.59507,0.623264,0.28472,0.21975,0.627692,0.770604,0
108,0.435583,0.517113,0.45079,0.476798,0.621907,0.112573,0.476509,0.589692,0.477853,1
109,0.601426,0.5016,0.212081,0.285422,0.508884,0.493415,0.575079,0.38978,0.475038,0
110,0.663297,0.635599,0.196865,0.543081,0.577334,0.301222,0.458688,0.532673,0.716578,0
111,0.562564,0.648741,0.203416,0.544119,0.617569,0.461461,0.148025,0.506158,0.527243,0
112,0.551809,0.742979,0.593647,0.628944,0.845221,0.276165,0.585665,0.484706,0.430107,1
113,0.242006,0.597032,0.326882,0.643271,0.625389,0.301524,0.613346,0.662409,0.254982,0
114,0.481808,0.620231,0.353837,0.533347,0.581699,0.334989,0.560407,0.595058,0.46367,0
115,0.505771,0.518665,0.455482,0.7251,0.648315,0.143896,0.430852,0.538021,0.790133,1
116,0.51313,0.777748,0.22625,0.677612,0.65257,0.190502,0.572793,0.659466,0.59504,0
117,0.722284,0.700057,0.24645,0.394572,0.661598,0.387435,0.53376,0.489795,0.373561,0
118,0.528387,0.272438,0.14012,0.511678,0.31988,0.539238,0.427812,0.532673,0.321263,0
119,0.558057,0.541009,0.693359,0.546587,0.581699,0.456515,0.47766,0.532673,0.899007,1
120,0.491247,0.324446,0.445154,0.527556,0.506766,0.281035,0.620837,0.652719,0.449546,1
121,0.505771,0.361049,0.263463,0.574171,0.581699,0.502679,0.628405,0.396099,0.607743,0
122,0.505771,0.665153,0.444911,0.531076,0.682639,0.162937,0.282704,0.581192,0.519492,0
123,0.537218,0.796641,0.435824,0.790407,0.581699,0.566968,0.537845,0.456749,0.270521,0
124,0.610777,0.666747,0.469533,0.584777,0.682509,0.438572,0.538939,0.58746,0.439192,1
125,0.73632,0.61586,0.44876,0.67008,0.683268,0.352303,0.167831,0.477341,0.346961,0
126,0.505771,0.744448,0.476925,0.747878,0.866266,0.496159,0.422262,0.677099,0.681175,1
127,0.526506,0.581391,0.403783,0.725192,0.662727,0.317709,0.357956,0.543417,0.560142,0
128,0.798621,0.656054,0.267287,0.449472,0.581699,0.564067,0.491764,0.892419,0.446179,0
129,0.464749,0.561692,0.275278,0.457924,0.561492,0.525109,0.549241,0.368871,0.396819,0
130,0.474567,0.378892,0.173845,0.265959,0.317974,0.448407,0.500565,0.514887,0.446767,0
131,0.359555,0.391341,0.568921,0.5299,0.542894,0.558098,0.617337,0.506687,0.339374,1
132,0.493758,0.39286,0.289826,0.357284,0.417317,0.451448,0.619951,0.444334,0.219748,0
133,0.569831,0.719873,0.52292,0.726703,0.768635,0.510928,0.36507,0.187235,0.397453,1
134,0.434167,0.544339,0.58511,0.608882,0.711664,0.312274,0.685763,0.333663,0.520246,1
135,0.445887,0.524051,0.456907,0.530602,0.540597,0.466477,0.657858,0.488403,0.578314,1
136,0.433097,0.411094,0.237319,0.558286,0.50231,0.254934,0.387319,0.554108,0.381421,0
137,0.580685,0.473235,0.451732,0.677417,0.583581,0.376907,0.526294,0.65432,0.361607,1
138,0.683029,0.560704,0.20886,0.428075,0.562789,0.44049,0.457435,0.509573,0.43727,0
139,0.583414,0.556715,0.440356,0.540933,0.6112,0.601748,0.534187,0.531335,0.536849,1
140,0.613887,0.807389,0.254009,0.435279,0.581699,0.858732,0.689044,0.439903,0.400641,0
141,0.505771,0.435102,0.338613,0.360949,0.581699,0.67299,0.34938,0.532673,0.421591,1
142,0.487533,0.506434,0.75229,0.452897,0.635462,0.335648,0.398712,0.470658,0.298251,1
143,0.561513,0.568904,0.407579,0.592667,0.594306,0.503626,0.528483,0.693071,0.511941,1
144,0.354698,0.629023,0.352703,0.461728,0.5187,0.358357,0.606714,0.431359,0.372805,0
145,0.443388,0.527781,0.21544,0.427947,0.559345,0.616082,0.47845,0.484716,0.396918,0
146,0.505771,0.397434,0.324206,0.604231,0.581699,0.541088,0.579423,0.577885,0.561081,0
147,0.697804,0.786507,0.133824,0.626044,0.654115,0.300271,0.492226,0.421115,0.602487,0
148,0.687905,0.382421,0.382896,0.514576,0.579916,0.412135,0.554413,0.724145,0.656096,1
149,0.370534,0.207915,0.32409,0.513653,0.581699,0.327584,0.495799,0.794394,0.331491,0
150,0.545255,0.552142,0.262555,0.74744,0.65212,0.418023,0.319517,0.807262,0.279271,0
151,0.412229,0.390359,0.403711,0.4837,0.477258,0.231208,0.364168,0.689185,0.612395,1
152,0.469998,0.543342,0.284636,0.325189,0.45817,0.127496,0.293014,0.592329,0.591025,0
153,0.34294,0.483659,0.217314,0.675169,0.548425,0.70981,0.390857,0.497235,0.561285,0
154,0.567773,0.692093,0.308811,0.430526,0.581699,0.442717,0.247636,0.540037,0.423946,0
155,0.493357,0.614284,0.32296,0.544059,0.599681,0.305977,0.284065,0.489889,0.127578,0
156,0.505771,0.848181,0.363364,0.502677,0.609708,0.37397,0.486708,0.538586,0.566147,0
157,0.505771,0.519955,0.195438,0.336142,0.510083,0.380842,0.370758,0.496087,0.380634,0
158,0.604381,0.599036,0.559644,0.651832,0.726799,0.517365,0.44451,0.532673,0.439014,1
159,0.551867,0.676537,0.350488,0.466629,0.600156,0.508474,0.467428,0.290763,0.429313,0
160,0.505771,0.72628,0.315707,0.658917,0.581699,0.45008,0.552669,0.520931,0.440109,0
161,0.637648,0.705291,0.369425,0.641702,0.678849,0.347487,0.331773,0.609426,0.595928,0
162,0.44343,0.383722,0.279739,0.615494,0.566093,0.524101,0.462609,0.502833,0.545399,0
163,0.437745,0.341179,0.15261,0.569544,0.423121,0.408361,0.545435,0.405282,0.601971,0
164,0.505771,0.561579,0.191455,0.69175,0.599334,0.411124,0.455143,0.503217,0.232352,0
165,0.522003,0.824373,0.234452,0.606951,0.725973,0.409408,0.557917,0.553287,0.424678,0
166,0.505771,0.444943,0.649937,0.485557,0.581699,0.583891,0.433566,0.322696,0.54892,1
167,0.617206,0.55909,0.429394,0.517816,0.634338,0.224705,0.592532,0.551078,0.720949,1
168,0.505771,0.573384,0.329785,0.505524,0.642745,0.526085,0.388421,0.566619,0.501518,0
169,0.582372,0.289137,0.16353,0.428678,0.393821,0.53584,0.373313,0.729189,0.275248,0
170,0.592409,0.575745,0.572937,0.476634,0.619441,0.381213,0.531252,0.642668,0.473571,1
171,0.505771,0.676183,0.34176,0.496116,0.581699,0.264495,0.289091,0.622998,0.351836,0
172,0.505771,0.690065,0.421765,0.526226,0.691986,0.285532,0.469051,0.583783,0.426659,0
173,0.677855,0.67698,0.249446,0.343118,0.581699,0.168724,0.555487,0.654615,0.523722,0
174,0.559355,0.520026,0.121073,0.351719,0.464493,0.570004,0.5106,0.683678,0.593455,0
175,0.316449,0.334626,0.468611,0.673923,0.48115,0.442937,0.578517,0.505464,0.554843,1
176,0.517196,0.557705,0.385218,0.5792,0.602174,0.695515,0.432428,0.502282,0.398241,1
177,0.505771,0.771779,0.315186,0.658487,0.68125,0.121598,0.406306,0.388716,0.418892,0
178,0.490522,0.459763,0.39062,0.405318,0.479093,0.52922,0.355659,0.523814,0.44878,1
179,0.437831,0.554409,0.503544,0.663648,0.624571,0.279623,0.272035,0.639415,0.598579,1
180,0.565504,0.836529,0.441192,0.694178,0.840234,0.310038,0.492502,0.455141,0.417751,0
181,0.465116,0.487651,0.473118,0.574072,0.615718,0.513864,0.387787,0.419429,0.642926,1
182,0.380273,0.670809,0.612496,0.66754,0.714644,0.698448,0.386736,0.442732,0.270509,1
183,0.483541,0.440728,0.176439,0.529884,0.502215,0.18896,0.62628,0.497019,0.712902,0
184,0.419855,0.341625,0.218883,0.41876,0.428322,0.6243,0.376783,0.544931,0.488232,0
185,0.681002,0.560492,0.150258,0.450388,0.541363,0.136665,0.514391,0.532673,0.249242,0
186,0.452859,0.644183,0.737224,0.427165,0.664731,0.444195,0.351952,0.648475,0.422764,1
187,0.618685,0.858445,0.439487,0.590674,0.581699,0.578453,0.563684,0.581913,0.419821,1
188,0.403822,0.35967,0.265022,0.481377,0.484744,0.159055,0.444263,0.7065,0.708827,0
189,0.473287,0.23529,0.418987,0.571957,0.520543,0.254896,0.659354,0.68997,0.518872,1
190,0.556702,0.469489,0.295926,0.564828,0.594351,0.331783,0.262032,0.612923,0.51483,0
191,0.542366,0.776715,0.296359,0.465405,0.581699,0.360484,0.550804,0.414507,0.364405,0
192,0.52591,0.501502,0.261837,0.388651,0.533813,0.415793,0.529665,0.51874,0.559371,0
193,0.665736,0.298855,0.257464,0.317263,0.405279,0.556712,0.416738,0.666058,0.521046,0
194,0.265699,0.730624,0.382062,0.573913,0.632205,0.430197,0.69708,0.307207,0.239818,0
195,0.4754,0.613036,0.332493,0.675713,0.581699,0.271654,0.595632,0.575735,0.283918,0
196,0.70492,0.604784,0.246377,0.234802,0.47747,0.424596,0.650898,0.562481,0.360274,0
197,0.39933,0.659287,0.575471,0.597858,0.581699,0.503497,0.424581,0.618639,0.619559,1
198,0.396745,0.659036,0.509365,0.579995,0.581699,0.219265,0.451142,0.702044,0.122124,0
199,0.294752,0.28308,0.178882,0.392486,0.376231,0.461229,0.62743,0.695232,0.569144,0
200,0.426431,0.663847,0.262751,0.386843,0.528892,0.255837,0.426283,0.314908,0.752255,0
201,0.505771,0.661388,0.260093,0.358643,0.581699,0.467532,0.253505,0.532673,0.595751,0
202,0.597797,0.493552,0.207778,0.489147,0.530923,0.545557,0.413299,0.700065,0.412129,0
203,0.448875,0.517192,0.195148,0.59168,0.581699,0.373829,0.423224,0.472082,0.364366,0
204,0.804845,0.415189,0.093905,0.536471,0.581699,0.236163,0.366602,0.201094,0.511126,0
205,0.664144,0.419333,0.224436,0.305104,0.581699,0.381202,0.50444,0.674865,0.42188,0
206,0.563962,0.387511,0.122297,0.536459,0.367334,0.395637,0.544829,0.505249,0.526933,0
207,0.567678,0.806615,0.560202,0.517126,0.741709,0.426931,0.4425,0.453488,0.425573,1
208,0.716154,0.64142,0.24039,0.553919,0.590781,0.587608,0.638257,0.524293,0.516596,0
209,0.463442,0.645829,0.567158,0.673166,0.728646,0.250107,0.402166,0.78187,0.594077,1
210,0.419267,0.581422,0.359951,0.488905,0.63507,0.496858,0.484218,0.625373,0.612463,1
211,0.505771,0.628896,0.34626,0.467544,0.587579,0.350985,0.279705,0.699746,0.417844,0
212,0.378867,0.411823,0.410115,0.464504,0.487175,0.55312,0.490921,0.489831,0.513466,1
213,0.538115,0.50595,0.185889,0.433557,0.581699,0.3183,0.327209,0.396199,0.380557,0
214,0.291258,0.581831,0.293468,0.592718,0.581699,0.186902,0.425544,0.28465,0.24743,0
215,0.505771,0.211929,0.61746,0.411541,0.581699,0.310225,0.383414,0.570994,0.458282,1
216,0.506155,0.514028,0.065405,0.25549,0.370347,0.383697,0.413525,0.512439,0.371817,0
217,0.447929,0.602167,0.402671,0.627867,0.581699,0.632862,0.602166,0.680184,0.728603,1
218,0.568412,0.831731,0.276514,0.586265,0.762524,0.582203,0.472405,0.485322,0.378284,0
219,0.633974,0.658306,0.462461,0.388785,0.633356,0.512869,0.478313,0.420575,0.483455,1
220,0.505771,0.526004,0.294496,0.557358,0.524888,0.491238,0.449507,0.425499,0.549877,0
221,0.472408,0.339861,0.415846,0.537845,0.472223,0.337997,0.453573,0.596788,0.395116,1
222,0.55255,0.326038,0.269316,0.573294,0.436155,0.723685,0.634335,0.505466,0.132088,0
223,0.708932,0.693823,0.170486,0.450726,0.632324,0.392433,0.43488,0.476422,0.615202,0
224,0.643042,0.564248,0.315274,0.53955,0.572,0.32352,0.516835,0.445875,0.653212,0
225,0.363983,0.81967,0.426662,0.772431,0.713579,0.581252,0.615801,0.492343,0.548723,1
226,0.613906,0.784689,0.375974,0.472991,0.724262,0.712359,0.436015,0.693268,0.624706,1
227,0.505984,0.237179,0.135607,0.302018,0.300692,0.442878,0.812242,0.757917,0.460896,0
228,0.548777,0.4834,0.19349,0.39489,0.475069,0.504236,0.52229,0.495401,0.440274,0
229,0.505771,0.313325,0.294741,0.435215,0.581699,0.408716,0.356494,0.748307,0.352278,0
230,0.458555,0.585176,0.499764,0.580498,0.581699,0.598253,0.690901,0.532673,0.311067,1
231,0.317374,0.477069,0.405338,0.359829,0.48171,0.43378,0.595009,0.45115,0.343794,1
232,0.498476,0.492618,0.374239,0.481317,0.551531,0.504661,0.53191,0.529423,0.62714,1
233,0.473115,0.564391,0.276595,0.445996,0.519064,0.400028,0.52546,0.521517,0.277021,0
234,0.261765,0.55738,0.456141,0.417224,0.57104,0.191769,0.585082,0.603299,0.352838,1
235,0.343867,0.572313,0.284527,0.608147,0.629172,0.406651,0.337142,0.378581,0.707289,0
236,0.412834,0.551899,0.391412,0.712808,0.581699,0.432046,0.529598,0.520312,0.606235,1
237,0.495558,0.472071,0.202036,0.550206,0.581699,0.451407,0.273879,0.6687,0.429966,0
238,0.531199,0.582759,0.463395,0.481257,0.596607,0.596843,0.571467,0.52387,0.430642,1
239,0.337379,0.743014,0.369621,0.436043,0.708916,0.401867,0.551133,0.535367,0.466551,0
240,0.670047,0.789393,0.243585,0.306814,0.580445,0.562528,0.348138,0.79731,0.488627,0
241,0.557867,0.507389,0.329982,0.537213,0.55742,0.296756,0.559402,0.549622,0.488518,0
242,0.674046,0.349507,0.335006,0.575194,0.581699,0.504106,0.460374,0.53009,0.559863,0
243,0.67188,0.6142,0.453609,0.454334,0.643333,0.291155,0.54179,0.254501,0.311454,0
244,0.451519,0.579726,0.134817,0.441165,0.447374,0.542584,0.319804,0.598439,0.576944,0
245,0.505771,0.616404,0.290009,0.645179,0.581699,0.39824,0.307041,0.143288,0.407479,0
246,0.336097,0.202188,0.31581,0.502176,0.581699,0.329967,0.267542,0.755809,0.37577,0
247,0.635458,0.634129,0.140379,0.443001,0.576662,0.426229,0.331331,0.532673,0.42559,0
248,0.470134,0.818126,0.605004,0.60765,0.815507,0.297264,0.495377,0.637042,0.520261,1
249,0.48251,0.666788,0.299079,0.657936,0.606618,0.356086,0.447848,0.637378,0.701972,0
250,0.674652,0.356824,0.21094,0.711739,0.515817,0.719015,0.245456,0.623383,0.45853,0
251,0.644632,0.29259,0.3208,0.599955,0.48618,0.471549,0.481642,0.592559,0.479344,0
252,0.505771,0.444492,0.378987,0.639353,0.581699,0.51427,0.410885,0.406645,0.245285,0
253,0.485723,0.705773,0.637413,0.716219,0.165243,0.340946,0.353734,0.592553,0.454706,1
254,0.512438,0.565765,0.32969,0.573762,0.449068,0.234439,0.472548,0.597651,0.470769,0
255,0.546999,0.687466,0.228628,0.464741,0.693591,0.411186,0.316637,0.690519,0.18667,0
256,0.594499,0.579707,0.455269,0.66341,0.479541,0.30994,0.632539,0.488175,0.49199,1
257,0.423877,0.639939,0.376459,0.332748,0.581699,0.1677,0.351221,0.53452,0.712402,1
258,0.700194,0.186221,0.443904,0.694024,0.551654,0.578718,0.45858,0.476355,0.24856,1
259,0.435854,0.608781,0.257051,0.665766,0.50985,0.413318,0.419436,0.501109,0.394327,0
260,0.356984,0.843878,0.435559,0.452349,0.696624,0.203071,0.512321,0.566454,0.369566,0
261,0.343983,0.617555,0.263868,0.556491,0.425367,0.5246,0.510241,0.624324,0.553077,0
262,0.467716,0.838447,0.413544,0.500773,0.675712,0.552301,0.550313,0.63755,0.408747,1
263,0.9411,0,0.310592,0.669669,0.699221,0.557414,0.378693,0.532673,0.502349,0
264,0.472715,0.675499,0.316518,0.340434,0.862301,0.385036,0.366519,0.587804,0.564889,0
265,0.55629,0.599435,0.485305,0.52031,0.658091,0.311415,0.48386,0.674322,0.362783,1
266,0.370845,0.593641,0.238812,0.539076,0.551399,0.362385,0.596935,0.671475,0.455625,0
267,0.401881,0.665329,0.231856,0.380303,0.581699,0.288654,0.351291,0.344447,0.093273,0
268,0.490688,0.739454,0.351489,0.66154,0.428306,0.625999,0.413569,0.451653,0.619532,1
269,0.647045,0.391471,0.253119,0.540116,0.608566,0.492963,0.599788,0.668796,0.416361,0
270,0.520849,0.290586,0.450908,0.736006,0.336151,0.45145,0.577971,0.477181,0.733355,1
271,0.519708,0.463519,0.366528,0.589812,0.466749,0.335506,0.582823,0.454814,0.682983,1
272,0.465196,0.659547,0.363741,0.957184,0.179057,0.521138,0.298217,0.534882,0.598027,1
273,0.514849,0.465876,0.58259,0.60384,0.542857,0.50201,0.535023,0.571211,0.437274,1
274,0.505771,0.39569,0.259829,0.491397,0.634472,0.783056,0.433245,0.33751,0.439198,0
275,0.380353,0.843904,0.575043,0.993488,0.145461,0.368863,0.318192,0.440904,0.562892,1
276,0.505879,0.442657,0.484774,0.398543,0.628928,0.299981,0.642128,0.240553,0.38487,1
277,0.381013,0.643312,0.469189,0.445912,0.581699,0.312482,0.384956,0.538826,0.688477,1
278,0.768707,0.124338,0.421615,0.636039,0.538099,0.369357,0.402925,0.417882,0.60726,1
279,0.449058,0.764868,0.220937,0.55822,0.567225,0.667911,0.546392,0.590439,0.501959,0
280,0.699611,0.299026,0.334314,0.707541,0.462971,0.429547,0.369855,0.632583,0.282741,0
281,0.58646,0.434072,0.223493,0.788324,0.325216,0.366498,0.442416,0.489366,0.666677,0
282,0.495837,0.456678,0.32494,0.496688,0.581699,0.337499,0.679597,0.532673,0.588615,0
283,0.739723,0.322431,0.793032,0.68937,0.565072,0.322171,0.604428,0.621618,0.520297,1
284,0.568499,0.449965,0.382635,0.71904,0.37207,0.255553,0.533223,0.8682,0.614106,1
285,0.277331,0.712302,0.122005,0.013961,0.581699,0.279452,0.413433,0.481673,0.43184,0
286,0.405127,0.611591,0.256595,0.559575,0.581699,0.334089,0.601369,0.622413,0.450588,0
287,0.714521,0.34699,0.751861,0.983185,0.581699,0.687357,0.565644,0.292302,0.623252,1
288,0.468061,0.549073,0.553071,0.652775,0.414465,0.517051,0.466269,0.628215,0.612211,1
289,0.544897,0.396681,0.425623,0.625097,0.358046,0.549932,0.438083,0.526252,0.516555,1
290,0.342203,0.802667,0.288007,0.328969,0.705169,0.747323,0.329744,0.673072,0.342004,0
291,0.550783,0.487885,0.102316,0.394305,0.743107,0.58546,0.567463,0.466516,0.536764,0
292,0.592236,0.594087,0.323238,0.658777,0.416916,0.514857,0.399029,0.534431,0.37336,0
293,0.442369,0.64656,0.206264,0.343433,0.581699,0.36359,0.473568,0.6143,0.38129,0
294,0.64519,0.26845,0.25116,0.454442,0.692915,0.365778,0.491583,0.506138,0.657443,0
295,0.438535,0.686426,0.127418,0.461746,0.581699,0.410512,0.40525,0.854272,0.342391,0
296,0.509245,0.474952,0.418999,0.558577,0.522633,0.24799,0.544297,0.555075,0.372209,0
297,0.505771,0.52179,0.355093,0.412899,0.643378,0.573434,0.555229,0.676362,0.502853,1
298,0.387036,0.509064,0.584206,0.31351,0.581699,0.477454,0.159926,0.832657,0.577905,1
299,0.576821,0.538184,0.478812,0.793882,0.482166,0.245278,0.289314,0.584093,0.422182,1
300,0.505771,0.645125,0.364343,0.524898,0.70485,0.192128,0.359771,0.58226,0.49758,0
301,0.717834,0.309769,0.184482,0.641767,0.552532,0.456903,0.428205,0.74182,0.696441,0
302,0.404832,0.661957,0.273091,0.65928,0.4675,0.651624,0.461864,0.435647,0.412784,0
303,0.505771,0.486982,0.450779,0.566565,0.480716,0.412947,0.246364,0.585625,0.445816,1
304,0.637427,0.321034,0.453136,0.940218,0.581699,0.409447,0.37356,0.556351,0.511549,1
305,0.459205,0.646305,0.250804,0.454127,0.581699,0.497606,0.605953,0.701154,0.51707,0
306,0.497186,0.559623,0.181061,0.308876,0.581699,0.50206,0.317647,0.721619,0.6672,0
307,0.419548,0.565479,0.310243,0.693603,0.581699,0.417599,0.341735,0.523207,0.749119,0
308,0.485391,0.509086,0.24595,0.558481,0.533922,0.554651,0.666683,0.443471,0.70204,0
309,0.717216,0.240845,0.261804,0.5939,0.667177,0.657509,0.421277,0.604365,0.445748,0
310,0.505771,0.819116,0.725467,0.630974,0.29768,0.531886,0.479119,0.417211,0.505725,1
311,0.521146,0.68302,0.58652,0.379195,0.705026,0.35696,0.569069,0.721111,0.513996,1
312,0.505771,0.414936,0.475783,0.522646,0.62901,0.339764,0.672896,0.69738,0.387139,1
313,0.41876,0.499228,0.71829,0.315516,0.805868,0.262454,0.502149,0.477583,0.767143,1
314,0.520867,0.460835,0.552828,0.717009,0.369755,0.443508,0.539985,0.656748,0.570413,1
315,0.575915,0.555189,0.18466,0.746611,0.581699,0.575196,0.323791,0.326579,0.571345,0
316,0.558712,0.398088,0.377584,0.683526,0.556348,0.197868,0.574206,0.582746,0.393828,0
317,0.807271,0.108917,0.638796,0.639216,0.592282,0.4011,0.464632,0.424975,0.351594,1
318,0.470983,0.674964,0.414878,0.73845,0.581699,0.538979,0.467035,0.370966,0.169518,0
319,0.654363,0.262648,0.431764,0.450378,0.608723,0.346661,0.333331,0.436815,0.65004,1
320,0.505771,0.353232,0.232917,0.427952,0.638033,0.191316,0.258317,0.542335,0.845638,0
321,0.33164,0.944075,0.259333,0.575761,0.581699,0.451966,0.622252,0.481964,0.478893,0
322,0.557032,0.511306,0.531696,0.839677,0.366988,0.569537,0.615802,0.685042,0.502414,1
323,0.397453,0.757283,0.179371,0.537006,0.569094,0.328878,0.514945,0.408985,0.158062,0
324,0.563328,0.600745,0.632629,0.846872,0.433771,0.252915,0.313608,0.518607,0.593682,1
325,0.531656,0.528462,0.217236,0.310079,0.581699,0.435428,0.658863,0.578748,0.22969,0
326,0.261223,0.828225,0.384458,0.684835,0.581699,0.427986,0.604826,0.445854,0.352549,0
327,0.685514,0.434024,0.34204,0.594322,0.616637,0.268797,0.465428,0.404865,0.698649,0
328,0.497445,0.5997,0.486588,0.573244,0.54612,0.343794,0.418686,0.578856,0.480325,1
329,0.548065,0.382479,0.372185,0.460267,0.609149,0.384111,0.461789,0.515595,0.532847,1
330,0.481215,0.626308,0.400186,0.627919,0.581699,0.354677,0.174256,0.060342,0.494076,0
331,0.505771,0.420007,0.29963,0.607229,0.474931,0.49358,0.563224,0.491732,0.507798,0
332,0.384464,0.698556,0.293376,0.407044,0.763286,0.647,0.406848,0.641251,0.514905,0
333,0.501639,0.78745,0.257074,0.830075,0.377991,0.40434,0.11936,0.610784,0.665893,0
334,0.505771,0.737321,0.443879,0.479846,0.705501,0.661586,0.438849,0.626144,0.287226,1
335,0.716159,0.169244,0.413573,0.490185,0.728353,0.361949,0.371156,0.556019,0.432261,0
336,0.398845,0.77551,0.57396,0.488659,0.581699,0.169894,0.435455,0.669605,0.457583,1
337,0.568066,0.630914,0.30047,0.510953,0.581699,0.223431,0.645861,0.583727,0.720366,0
338,0.39287,0.751711,0.340883,0.627582,0.621584,0.504166,0.432812,0.481153,0.515878,0
339,0.538836,0.414198,0.30859,0.637292,0.457233,0.452559,0.426696,0.64501,0.412278,0
340,0.489167,0.405366,0.205505,0.376708,0.695939,0.659834,0.385214,0.560061,0.557119,0
341,0.505771,0.485246,0.491901,0.78517,0.362554,0.535995,0.350433,0.552529,0.440453,1
342,0.422161,0.853514,0.245031,0.491941,0.665808,0.898623,0.419094,0.72255,0.418023,0
343,0.62263,0.386475,0.187395,0.530067,0.581699,0.464353,0.40368,0.317937,0.331845,0
344,0.429778,0.630106,0.268201,0.379623,0.581699,0.352751,0.778462,0.65623,0.561972,0
345,0.683416,0.455869,0.631569,0.375577,0.897565,0.543714,0.410123,0.387333,0.519554,1
346,0.306875,0.83686,0.317727,0.36033,0.811397,0.259826,0.348398,0.567308,0.513014,0
347,0.253684,1,0.634556,0.671117,0.581699,0.5828,0.304992,0.570833,0.475703,1
348,0.609262,0.39997,0.293612,0.671219,0.512859,0.554625,0.386507,0.416112,0.439788,0
349,0.576096,0.459529,0.345537,0.558821,0.528876,0.551772,0.353142,0.368931,0.436073,0
350,0.654175,0.50506,0.254097,0.610496,0.581802,0.427148,0.382477,0.907699,0.58144,0
351,0.632042,0.51321,0.520675,1,0.151684,0.521647,0.378178,0.624145,0.484909,1
352,0.678247,0.502178,0.291717,0.561673,0.737915,0.398642,0.390717,0.508033,0.513999,0
353,0.575207,0.549753,0.14291,0.537439,0.594826,0.256968,0.265997,0.340861,0.413092,0
354,0.199896,0.957416,0.436906,0.529542,0.581699,0.593952,0.461117,0.335402,0.418463,1
355,0.458991,0.513429,0.191187,0.565098,0.671685,0.562214,0.446992,0.779479,0.43145,0
356,0.554091,0.60073,0.409463,0.57011,0.66666,0.633102,0.500154,0.86362,0.513411,1
357,0.553475,0.697722,0.476311,0.811045,0.24998,0.454738,0.543655,0.532673,0.200758,1
358,0.365528,0.646466,0.502299,0.458374,0.689285,0.306681,0.225035,0.621847,0.470257,1
359,0.534395,0.619638,0.193206,0.353711,0.790546,0.589117,0.571684,0.454098,0.531682,0
360,0.383873,0.55823,0.313421,0.226034,0.725968,0.294993,0.431076,0.532673,0.414592,0
361,0.504546,0.337989,0.289311,0.463664,0.701775,0.386651,0.392327,0.233084,0.367908,0
362,0.491175,0.520191,0.355597,0.413194,0.667077,0.293258,0.281676,0.549016,0.585241,0
363,0.343745,0.735429,0.18298,0.313945,0.764598,0.74414,0.613411,0.501156,0.297031,0
364,0.356681,0.707995,0.222963,0.478728,0.581699,0.434275,0.577573,0.490888,0.322142,0
365,0.342062,0.679968,0.45732,0.821764,0.165963,0.460552,0.367234,0.716141,0.273559,1
366,0.288378,0.885154,0.853738,0.581406,0.581699,0.384222,0.549537,0.706437,0.301578,1
367,0.464705,0.699534,0.479651,0.502801,0.604289,0.146483,0.435641,0.749854,0.576201,1
368,0.48427,0.386135,0.395594,0.545649,0.581699,0.486821,0.48208,0.755924,0.241842,0
369,0.496608,0.595829,0.548652,0.465665,0.581699,0.374084,0.459096,0.316926,0.502079,1
370,0.402029,0.650719,0.459945,0.599648,0.468494,0.296712,0.491159,0.27941,0.680787,1
371,0.426143,0.534525,0.279596,0.32208,0.782915,0.394018,0.357854,0.384834,0.515625,0
372,0.451388,0.484358,0.590379,0.752137,0.416418,0.220697,0.612909,0.753324,0.227477,1
373,0.573375,0.529288,0.121396,0.448942,0.581699,0.453705,0.777957,0.497064,0.383937,0
374,0.634477,0.319527,0.07448,0.380257,0.581699,0.613531,0.693344,0.159009,0.449597,0
375,0.427949,0.642661,0.487014,0.550436,0.57021,0.739951,0.595449,0.522294,0.641059,1
376,0.733746,0.421458,0.304959,0.760564,0.39953,0.463343,0.369997,0.662877,0.327072,0
377,0.505771,0.305108,0.349809,0.536661,0.581699,0.366299,0.484481,0.209046,0.6198,0
378,0.436081,0.731648,0.737667,0.549304,0.595889,0.233417,0.346811,0.713273,0.312552,1
379,0.674526,0.094527,0.330299,0.600623,0.530652,0.484724,0.396118,0.406569,0.385072,0
380,0.491958,0.639014,0.473978,0.795496,0.354601,0.358723,0.34913,0.545003,0.588805,1
381,0.465207,0.441745,0.407683,0.333566,0.700542,0.200383,0.49382,0.594976,0.558525,1
382,0.412337,0.601873,0.423667,0.648041,0.409849,0.496758,0.22246,0.480491,0.953725,1
383,0.350897,0.946062,0.718188,0.593031,0.431592,0.255294,0.48498,0.532673,0.6518,1
384,0.695683,0.433516,0.218405,0.538859,0.727377,0.32894,0.387839,0.549787,0.211397,0
385,0.395856,0.501429,0.325453,0.773712,0.228591,0.588348,0.623142,0.394552,0.420302,1
386,0.505771,0.529836,0.688721,0.677412,0.367561,0.355334,0.263804,0.606039,0.406832,1
387,0.505771,0.347737,0.26175,0.460097,0.581699,0.563391,0.666111,0.532673,0.378472,0
388,0.460638,0.699377,0.22425,0.683052,0.5272,0.511083,0.583023,0.675689,0.410701,0
389,0.391279,0.594746,0.443973,0.427276,0.601152,0.308748,0.55285,0.532673,0.439451,1
390,0.610336,0.485982,0.510759,0.563838,0.628914,0.371431,0.308323,0.665119,0.164143,1
391,0.527043,0.466283,0.150057,0.437496,0.581699,0.385648,0.514922,0.297346,0.333753,0
392,0.476,0.551908,0.255836,0.384015,0.618084,0.290053,0.52833,0.490164,0.147046,0
393,0.48397,0.620195,0.289756,0.618561,0.581699,0.309926,0.31878,0.458423,0.545214,0
394,0.624027,0.534095,0.393436,0.665639,0.568144,0.266045,0.548515,0.539602,0.444718,0
395,0.510498,0.540932,0.27239,0.51182,0.542853,0.592152,0.408208,0.536063,0.487004,0
396,0.505771,0.709043,0.153248,0.461995,0.655244,0.711859,0.49797,0.503682,0.794521,0
397,0.360024,0.670322,0.41593,0.43658,0.566228,0.607788,0.43446,0.305112,0.407133,1
398,0.505771,0.849318,0.351139,0.366752,0.622786,0.29111,0.504601,0.691067,0.482855,0
399,0.55325,0.438619,0.230119,0.384525,0.581699,0.419687,0.202928,0.542639,0.490326,0
400,0.447118,0.583794,0.608079,0.642934,0.36211,0.347562,0.12903,0.549268,0.522482,1
401,0.614028,0.515398,0.233113,0.373552,0.835127,0.291257,0.580769,0.532673,0.391356,0
402,0.411954,0.816274,0.247873,0.577445,0.529513,0.42489,0.501313,0.487451,0.462486,0
403,0.506353,0.576484,0.22196,0.605577,0.546248,0.329602,0.48644,0.534931,0.7962,0
404,0.573513,0.401203,0.317579,0.632599,0.43823,0.436858,0.708667,0.480561,0.555597,0
405,0.505771,0.866074,0.76529,0.554836,0.379304,0.657397,0.470178,0.594716,0.504997,1
406,0.337556,0.733569,0.336802,0.366654,0.710162,0.401551,0.596538,0.633443,0.322619,0
407,0.585412,0.606059,0.165313,0.465237,0.563002,0.387694,0.49299,0.584274,0.334413,0
408,0.460268,0.541126,0.417354,0.166918,0.871154,0.298797,0.564154,0.262156,0.57642,1
409,0.502792,0.479569,0.468038,0.359574,0.741098,0.720304,0.378514,0.467504,0.551339,1
410,0.505771,0.501733,0.443702,0.671684,0.581699,0.231517,0.42989,0.456238,0.559192,1
411,0.505771,0.502063,0.24055,0.494273,0.617805,0.414385,0.631579,0.54335,0.692081,0
412,0.496087,0.629427,0.592999,0.407018,0.593596,0.326154,0.688151,0.424054,0.637754,1
413,0.410151,0.510659,0.43527,0.457982,0.537955,0.553736,0.285723,0.428117,0.354144,1
414,0.399759,0.470749,0.289041,0.632757,0.496361,0.648455,0.311877,0.4631,0.715657,1
415,0.525027,0.530307,0.433702,0.787835,0.512503,0.657526,0.548648,0.489521,0.41859,1
416,0.447343,0.578391,0.510515,0.326894,0.627033,0.674193,0.527339,0.586431,0.484499,1
417,0.709073,0.584198,0.317637,0.599344,0.600055,0.526981,0.350974,0.690327,0.491914,0
418,0.384386,0.464802,0.247118,0.556184,0.520849,0.222513,0.382335,0.532673,0.550967,0
419,0.354382,0.431017,0.359705,0.749125,0.471924,0.468059,0.375538,0.508591,0.463762,0
420,0.461221,0.525343,0.29585,0.663807,0.587932,0.587467,0.811236,0.414232,0.224497,0
421,0.467098,0.606498,0.343306,0.480125,0.590786,0.613943,0.615467,0.731532,0.581842,1
422,0.446601,0.646925,0.387469,0.521813,0.496524,0.530029,0.430403,0.540827,0.240671,0
423,0.569096,0.482784,0.312991,0.744911,0.558181,0.357731,0.347323,0.539779,0.495247,0
424,0.505771,0.599581,0.602726,0.366992,0.63081,0.618717,0.524714,0.264743,0.638267,1
425,0.543537,0.637873,0.665923,0.522794,0.515956,0.330129,0.466489,0.592388,0.320636,1
426,0.49199,0.456644,0.322249,0.558646,0.582614,0.453816,0.328755,0.716097,0.757135,1
427,0.705648,0.585703,0.235653,0.46092,0.675559,0.456151,0.667664,0.536082,0.523507,0
428,0.545626,0.474586,0.295332,0.485017,0.66282,0.37194,0.348344,0.659174,0.576031,0
429,0.497278,0.638988,0.505379,0.261453,0.610252,0.609832,0.439674,0.565438,0.377525,1
430,0.575758,0.582573,0.249045,0.412391,0.66179,0.423071,0.504657,0.606088,0.406675,0
431,0.517162,0.602089,0.379469,0.436467,0.566312,0.251642,0.453393,0.485414,0.450482,0
432,0.53477,0.552231,0.411699,0.360748,0.606349,0.460244,0.533158,0.344015,0.680438,1
433,0.600747,0.679906,0.447136,0.417199,0.663265,0.590264,0.470583,0.445316,0.28878,1
434,0.438852,0.463713,0.472057,0.916676,0.450808,0.504494,0.419253,0.669644,0.3831,1
435,0.435441,0.462254,0.262589,0.603602,0.581699,0.44469,0.324095,0.497685,0.698142,0
436,0.456059,0.711867,0.650826,0.496725,0.477758,0.44809,0.52749,0.439651,0.509548,1
437,0.675905,0.645529,0.195443,0.205822,0.733171,0.531973,0.421624,0.499422,0.264735,0
438,0.562011,0.549903,0.330231,0.45863,0.59346,0.643395,0.547953,0.532673,0.54186,1
439,0.419511,0.385363,0.354476,0.735881,0.540739,0.298976,0.458012,0.523248,0.694061,0
440,0.505771,0.505785,0.42169,0.637302,0.544536,0.616667,0.677779,0.435138,0.698452,1
441,0.466379,0.589687,0.470381,0.305139,0.581699,0.422016,0.187406,0.672974,0.361333,1
442,0.368015,0.579876,0.438037,0.496267,0.581699,0.29469,0.394272,0.39846,0.612562,1
443,0.561333,0.593136,0.433172,0.481962,0.603192,0.336777,0.253333,0.584623,0.372938,0
444,0.550315,0.679033,0.356883,0.608407,0.581699,0.377569,0.486497,0.40712,0.298991,0
445,0.480572,0.557488,0.370534,0.572367,0.541042,0.251904,0.558939,0.472353,0.559784,0
446,0.747464,0.520736,0.104748,0.510987,0.581699,0.555116,0.473646,0.53515,0.662953,0
447,0.650913,0.57495,0.337366,0.517479,0.573627,0.420656,0.533677,0.62516,0.589353,0
448,0.577129,0.459676,0.202884,0.5435,0.58115,0.713582,0.48476,0.314707,0.408595,0
449,0.505619,0.671582,0.424535,0.278853,0.582793,0.347946,0.284813,0.33436,0.424776,1
450,0.505771,0.33334,0.042545,0.781701,0.608805,0.61449,0.340166,0.336152,0.499735,0
451,0.574564,0.443452,0.140794,0.585977,0.567961,0.43604,0.385574,0.613297,0.323303,0
452,0.502875,0.52785,0.339333,0.475175,0.545262,0.349516,0.505611,0.710361,0.480887,0
453,0.391712,0.430661,0.341903,0.567954,0.55033,0.218362,0.458659,0.51434,0.49416,0
454,0.6096,0.729602,0.362054,0.20679,0.673652,0.280273,0.478655,0.632563,0.206983,0
455,0.519042,0.469443,0.238697,0.619161,0.56294,0.460872,0.679069,0.700363,0.360643,0
456,0.446904,0.484745,0.272301,0.879386,0.581699,0.524296,0.323362,0.598881,0.516364,0
457,0.517168,0.560644,0.232189,0.499818,0.525645,0.61784,0.460299,0.666936,0.441099,0
458,0.620865,0.351132,0.036647,0.692809,0.622034,0.587459,0.450706,0.337904,0.157587,0
459,0.61711,0.439556,0.109878,0.63402,0.642597,0.41672,0.602659,0.26694,0.518611,0
460,0.512847,0.483954,0.17303,0.619296,0.60308,0.308769,0.377981,0.670052,0.459151,0
461,0.511714,0.567117,0.556677,0.7092,0.543302,0.409356,0.537205,0.725659,0.360053,1
462,0.63758,0.517084,0.245109,0.526358,0.603717,0.315494,0.730961,0.532673,0.246197,0
463,0.453794,0.576142,0.296983,0.263936,0.622701,0.364075,0.421664,0.483144,0.265868,0
464,0.477254,0.693094,0.423787,0.465946,0.511992,0.252759,0.227518,0.367909,0.284883,0
465,0.388952,0.558404,0.454472,0.536747,0.575483,0.321072,0.367386,0.529008,0.47211,1
466,0.538563,0.501988,0.348967,0.555068,0.579721,0.459262,0.522244,0.392091,0.582642,0
467,0.505771,0.553103,0.246519,0.6059,0.495205,0.381426,0.368649,0.466359,0.573352,0
468,0.312177,0.512246,0.479777,0.607837,0.488657,0.480581,0.542024,0.372856,0.604912,1
469,0.736886,0.616031,0.170025,0.242154,0.763442,0.543356,0.406618,0.580422,0.370079,0
470,0.4714,0.547318,0.340818,0.460449,0.575222,0.466031,0.411353,0.479431,0.61492,1
471,0.299827,0.515219,0.508506,0.528627,0.581699,0.331004,0.374958,0.402272,0.710244,1
472,0.565771,0.45676,0.215638,0.516313,0.647012,0.506917,0.547044,0.545687,0.363836,0
473,0.452195,0.432751,0.296788,0.604652,0.581699,0.446803,0.41016,0.542832,0.470789,0
474,0.505771,0.485557,0.379484,0.577502,0.581699,0.259255,0.386043,0.308439,0.695471,1
475,0.554582,0.503099,0.420402,0.599547,0.581699,0.380597,0.791055,0.279938,0.502019,1
476,0.588367,0.517344,0.323357,0.628823,0.645091,0.343089,0.595438,0.299978,0.659692,0
477,0.40566,0.510558,0.579944,0.667762,0.548729,0.130834,0.490431,0.532673,0.168193,1
478,0.529826,0.530809,0.37576,0.557348,0.581699,0.550173,0.518941,0.587768,0.609105,1
479,0.341142,0.539885,0.309736,0.359368,0.568541,0.485434,0.428006,0.680228,0.554389,0
480,0.561792,0.589815,0.229692,0.49009,0.581699,0.387992,0.40917,0.595453,0.63245,0
481,0.421676,0.560161,0.411668,0.574572,0.524523,0.44283,0.605621,0.480555,0.593134,1
482,0.550408,0.476948,0.298092,0.616378,0.584864,0.588536,0.323326,0.506397,0.456033,0
483,0.558223,0.518266,0.326866,0.691577,0.586991,0.345783,0.48963,0.589699,0.311243,0
484,0.438553,0.43894,0.387041,0.715662,0.536959,0.546718,0.648123,0.482929,0.452112,1
485,0.3601,0.528618,0.279468,0.586378,0.548552,0.459851,0.585164,0.533856,0.584928,0
486,0.619657,0.55607,0.241825,0.648014,0.647118,0.454333,0.599734,0.599118,0.667154,0
487,0.54924,0.630867,0.491459,0.463194,0.543925,0.609001,0.60434,0.681137,0.66715,1
488,0.612152,0.553661,0.155344,0.415632,0.581699,0.576502,0.369965,0.52985,0.596409,0
489,0.405126,0.4982,0.282512,0.388474,0.596699,0.398692,0.497933,0.25315,0.343863,0
490,0.4732,0.569153,0.346801,0.440579,0.520737,0.404843,0.374142,0.501228,0.262982,0
491,0.467215,0.53732,0.480994,0.528895,0.568128,0.610843,0.371624,0.546831,0.171286,1
492,0.505771,0.44164,0.29697,0.374156,0.607725,0.296245,0.656484,0.697209,1,1
493,0.660086,0.639334,0.349548,0.294652,0.581699,0.522033,0.403273,0.525813,0.721446,1
494,0.505771,0.417837,0.34476,0.565423,0.455098,0.48321,0.202196,0.482715,0.579501,1
495,0.452915,0.402299,0.245743,0.567339,0.606333,0.268342,0.269621,0.303142,0.757914,0
496,0.427168,0.485421,0.188903,0.261175,0.645304,0.632786,0.253973,0.482455,0.528879,0
497,0.543284,0.452556,0.174188,0.632535,0.581699,0.383351,0.396952,0.412988,0.338977,0
498,0.459108,0.474785,0.421513,0.543448,0.570107,0.673717,0.374493,0.486758,0.866514,1
499,0.505771,0.539794,0.288779,0.259904,0.581699,0.412346,0.473451,0.462402,0.461001,0
500,0.436362,0.523496,0.435637,0.682005,0.520415,0.339356,0.510116,0.592654,0.648724,1
501,0.417352,0.4384,0.309249,0.510869,0.575171,0.5688,0.472266,0.646474,0.509213,0
502,0.383396,0.464289,0.47102,0.4798,0.581699,0.493119,0.657863,0.539892,0.532651,1
503,0.381849,0.49821,0.360446,0.733863,0.539812,0.543231,0.371443,0.702241,0.283676,0
504,0.384736,0.599078,0.653929,0.608394,0.539134,0.30438,0.580414,0.514943,0.418333,1
505,0.708534,0.579029,0.266366,0.523469,0.66482,0.170093,0.569063,0.353406,0.504346,0
506,0.505771,0.619786,0.685322,0.468037,0.555468,0.562474,0.517706,0.387466,0.544153,1
507,0.508676,0.568504,0.332534,0.52737,0.581699,0.30155,0.547439,0.456627,0.439516,0
508,0.672735,0.457787,0.138849,0.634378,0.651341,0.726302,0.558821,0.848067,0.596452,0
509,0.532655,0.782049,0.505106,0.104266,0.581699,0.70493,0.368178,0.363156,0.502277,1
510,0.376588,0.5763,0.687777,0.665183,0.581699,0.400737,0.37272,0.371585,0.684166,1
511,0.520854,0.561848,0.354163,0.569608,0.598894,0.345866,0.209002,0.513407,0.527064,0
512,0.557417,0.639323,0.608408,0.494166,0.581699,0.283777,0.555456,0.600708,0.275551,1
513,0.488882,0.544189,0.382357,0.629699,0.581699,0.603195,0.332494,0.497308,0.269817,0
514,0.400625,0.382753,0.320411,0.70403,0.552206,0.724991,0.466694,0.395014,0.603935,1
515,0.407225,0.674967,0.674654,0.433931,0.514616,0.574065,0.784936,0.592347,0.369283,1
516,0.386626,0.649836,0.741954,0.525885,0.507403,0.417308,0.756329,0.471465,0.499377,1
517,0.505771,0.583062,0.278196,0.230462,0.733092,0.786593,0.237723,0.548122,0.465522,0
518,0.358438,0.442397,0.472055,0.810918,0.477269,0.499659,0.525431,0.18704,0.536298,1
519,0.32516,0.542798,0.421111,0.666413,0.581699,0.490248,0.408176,0.556514,0.469428,1
520,0.505771,0.566117,0.346379,0.447799,0.541211,0.292106,0.398964,0.550896,0.598143,0
521,0.501808,0.563589,0.380616,0.382545,0.586735,0.506503,0.447951,0.511219,0.858299,1
522,0.412187,0.533451,0.260282,0.468869,0.539126,0.359611,0.377123,0.420034,0.527665,0
523,0.602705,0.492124,0.205824,0.551704,0.661248,0.709159,0.525936,0.626416,0.447243,0
524,0.421934,0.602263,0.681679,0.59278,0.520778,0.307375,0.51337,0.435527,0.538189,1
525,0.492739,0.507753,0.307087,0.513743,0.581699,0.432455,0.397707,0.354061,0.741404,0
526,0.732338,0.617735,0.153202,0.312043,0.682605,0.60616,0.630705,0.433325,0.347962,0
527,0.586179,0.491394,0.305864,0.494008,0.619641,0.264701,0.617946,0.535042,0.524697,0
528,0.520441,0.584029,0.501723,0.509195,0.588156,0.299232,0.320554,0.513437,0.61184,1
529,0.629235,0.648092,0.292575,0.358386,0.544837,0.294886,0.46509,0.515947,0.459265,0
530,0.474393,0.549354,0.452278,0.546045,0.538045,0.685904,0.421139,0.655621,0.613407,1
531,0.438939,0.544481,0.64585,0.74741,0.452114,0.241231,0.35967,0.967793,0.595743,1
532,0.421889,0.473207,0.4429,0.666714,0.519886,0.357307,0.449758,0.48576,0.634807,1
533,0.384989,0.420441,0.317296,0.684205,0.526197,0.542558,0.509438,0.388997,0.402283,0
534,0.357612,0.410111,0.441628,0.876023,0.457278,0.212942,0.550551,0.56758,0.418833,0
535,0.464546,0.420123,0.241014,0.570633,0.582629,0.587461,0.587382,0.300397,0.664244,0
536,0.686204,0.556455,0.305169,0.560711,0.581699,0.331236,0.350909,0.516243,0.558773,0
537,0.624445,0.478715,0.153899,0.48729,0.680351,0.248768,0.449234,0.689923,0.263262,0
538,0.5996,0.50858,0.168819,0.586165,0.635841,0.340569,0.428154,0.472262,0.261657,0
539,0.505771,0.57126,0.200896,0.425597,0.656056,0.750681,0.52922,0.419467,0.341793,0
540,0.274372,0.505948,0.322918,0.534086,0.581699,0.527841,0.429992,0.597457,0.413242,0
541,0.307241,0.36746,0.432125,0.695942,0.533375,0.322373,0.395239,0.432772,0.305847,0
542,0.706849,0.592045,0.211285,0.35954,0.581699,0.523998,0.366416,0.398451,0.446857,0
543,0.308531,0.502823,0.496577,0.740444,0.419946,0.176973,0.430984,0.532673,0.338811,1
544,0.593841,0.540878,0.180441,0.388166,0.668706,0.745695,0.239737,0.616221,0.536977,0
545,0.505771,0.47777,0.073293,0.418801,0.708456,0.587579,0.466943,0.551257,0.175853,0
546,0.243597,0.580233,0.800473,0.416081,0.491364,0.29734,0.528252,0.696899,0.429527,1
547,0.536496,0.488809,0.275504,0.438104,0.648426,0.555402,0.709801,0.486224,0.357801,0
548,0.498449,0.523869,0.42473,0.542265,0.534568,0.670032,0.660034,0.403762,0.658324,1
549,0.505771,0.424192,0.255928,0.849839,0.581699,0.313592,0.576229,0.482234,0.554165,0
550,0.532909,0.68971,0.408858,0.542109,0.532801,0.343089,0.142322,0.497365,0.472493,0
551,0.505771,0.517297,0.295643,0.590745,0.64034,0.46243,0.410046,0.508824,0.584909,0
552,0.515726,0.570696,0.251816,0.273247,0.581699,0.395012,0.496191,0.521256,0.557513,0
553,0.627918,0.507841,0.123628,0.470289,0.581699,0.355747,0.556413,0.626022,0.383867,0
554,0.505771,0.546996,0.429599,0.479136,0.581699,0.509234,0.3384,0.51104,0.510231,1
555,0.505771,0.622366,0.477988,0.70701,0.493614,0.428335,0.57883,0.562398,0.81804,1
556,0.646369,0.442803,0.066043,0.424957,0.73204,0.50789,0.535273,0.502865,0.257894,0
557,0.679653,0.550068,0.143858,0.440278,0.676733,0.559514,0.409085,0.446469,0.446755,0
558,0.438946,0.601191,0.329955,0.461193,0.581699,0.443978,0.816658,0.653576,0.499327,0
559,0.535301,0.590932,0.475018,0.436063,0.598944,0.460914,0.563874,0.682534,0.764361,1
560,0.506563,0.630267,0.47237,0.3744,0.581699,0.583319,0.665834,0.502096,0.693214,1
561,0.473184,0.452039,0.238996,0.526648,0.594952,0.39229,0.515561,0.469103,0.54523,0
562,0.430871,0.554926,0.534612,0.482546,0.633521,0.29465,0.456123,0.34592,0.373196,1
563,0.45315,0.425784,0.240572,0.810569,0.531614,0.272332,0.659452,0.516355,0.45254,0
564,0.505771,0.588824,0.444319,0.554232,0.553803,0.209351,0.450986,0.502998,0.50169,1
565,0.532796,0.617603,0.313852,0.335586,0.634673,0.546657,0.469743,0.458034,0.45208,0
566,0.454405,0.462879,0.418888,0.617752,0.582185,0.211078,0.320252,0.562782,0.421964,0
567,0.643685,0.658298,0.408615,0.502153,0.581699,0.347396,0.510281,0.532673,0.273642,0
568,0.533301,0.637495,0.294563,0.380008,0.581699,0.4805,0.453009,0.798237,0.119464,0
569,0.409987,0.516503,0.254563,0.607291,0.522845,0.425862,0.486559,0.654183,0.240607,0
570,0.556079,0.462318,0.214811,0.560924,0.581699,0.542001,0.445423,0.602955,0.653169,0
571,0.509899,0.484134,0.154446,0.419133,0.581699,0.382037,0.526912,0.543272,0.34457,0
572,0.628941,0.39827,0.072369,0.665069,0.647028,0.205988,0.277392,0.494091,0.70452,0
573,0.571645,0.504299,0.24113,0.574976,0.644052,0.664726,0.304722,0.537573,0.319068,0
574,0.511238,0.604218,0.384158,0.279637,0.610073,0.569049,0.507511,0.532673,0.705922,1
575,0.459098,0.564082,0.338213,0.405137,0.595353,0.264277,0.406476,0.603295,0.400609,0
576,0.437477,0.479331,0.453659,0.604589,0.496113,0.499578,0.44579,0.553938,0.412367,1
577,0.604136,0.657618,0.258441,0.296711,0.645696,0.3309,0.454472,0.662221,0.654996,0
578,0.4123,0.553926,0.451838,0.530743,0.538713,0.406624,0.511498,0.501235,0.307995,1
579,0.505771,0.629485,0.18457,0.444727,0.653883,0.393423,0.457828,0.475696,0.593527,0
580,0.482914,0.5249,0.308162,0.314092,0.613637,0.482761,0.424235,0.532673,0.653335,1
581,0.563932,0.461605,0.166556,0.572706,0.629307,0.508096,0.476395,0.487776,0.309025,0
582,0.612624,0.630117,0.403511,0.45954,0.604519,0.363392,0.526902,0.286744,0.466272,1
583,0.399766,0.65966,0.727863,0.481327,0.553926,0.424534,0.389342,0.321868,0.449264,1
584,0.581831,0.620289,0.509461,0.403573,0.584168,0.341319,0.486065,0.419251,0.540281,1
585,0.476107,0.634969,0.41045,0.361562,0.596709,0.239711,0.657805,0.583949,0.468613,1
586,0.464219,0.458254,0.384425,0.677656,0.571441,0.720594,0.451582,0.510748,0.54942,1
587,0.695421,0.588807,0.173647,0.450455,0.65106,0.468444,0.448722,0.376127,0.779582,0
588,0.66202,0.569217,0.230068,0.682436,0.566138,0.437156,0.372981,0.731481,0.719551,0
589,0.505771,0.484095,0.285433,0.459594,0.628341,0.465943,0.316514,0.25423,0.481967,0
590,0.718546,0.465896,0.080648,0.72972,0.581699,0.518485,0.546764,0.501911,0.447871,0
591,0.462563,0.471044,0.266178,0.762786,0.500664,0.498664,0.175331,0.522533,0.54001,0
592,0.435438,0.555744,0.272741,0.484556,0.581699,0.389915,0.262987,0.675951,0.284827,0
593,0.449846,0.60496,0.339898,0.540644,0.576149,0.441656,0.523838,0.520103,0.043591,0
594,0.377435,0.501551,0.430363,0.452489,0.565688,0.632495,0.582317,0.375853,0.633572,1
595,0.59071,0.524396,0.189936,0.628198,0.616388,0.391455,0.582209,0.687211,0.307521,0
596,0.431398,0.722766,0.643088,0.222542,0.581699,0.308647,0.422964,0.630093,0.521239,1
597,0.445949,0.448587,0.316619,0.619666,0.581699,0.579533,0.575418,0.428938,0.382462,0
598,0.586721,0.525025,0.205216,0.56235,0.609257,0.414779,0.427303,0.699649,0.365261,0
599,0.505771,0.573853,0.647257,0.337263,0.553805,0.573678,0.363021,0.440563,0.466392,1
600,0.505771,0.673172,0.439202,0.459408,0.480392,0.307131,0.558197,0.410073,0.535995,1
601,0.505771,0.627949,0.456671,0.596955,0.507491,0.41965,0.587444,0.698594,0.400751,1
602,0.702574,0.663929,0.259126,0.410749,0.581699,0.207357,0.466809,0.496514,0.523562,0
603,0.62284,0.625143,0.498474,0.54143,0.601989,0.525251,0.26633,0.401102,0.271833,1
604,0.500686,0.627983,0.300589,0.503302,0.581699,0.378612,0.483091,0.624893,0.316117,0
605,0.46376,0.454971,0.234863,0.578048,0.626093,0.823724,0.306975,0.456034,0.608389,0
606,0.55818,0.482115,0.282332,0.55867,0.634255,0.329675,0.463192,0.650196,0.274475,0
607,0.689469,0.572284,0.134423,0.359563,0.731587,0.369468,0.392588,0.431277,0.329471,0
608,0.571967,0.378336,0.140277,0.85319,0.581699,0.465151,0.391291,0.532673,0.718505,0
609,0.505771,0.446578,0.283063,0.623735,0.625775,0.337461,0.336749,0.591938,0.428561,0
610,0.505771,0.570575,0.549651,0.487371,0.581699,0.427722,0.449817,0.554215,0.452851,1
611,0.527631,0.515662,0.472887,0.631606,0.54702,0.483617,0.574596,0.454576,0.636549,1
612,0.392684,0.570386,0.478973,0.567681,0.552818,0.516492,0.554499,0.670733,0.68257,1
613,0.432702,0.664821,0.731411,0.476821,0.581699,0.377284,0.45356,0.616278,0.348317,1
614,0.505771,0.636178,0.386796,0.370282,0.581699,0.351965,0.523221,0.531652,0.526598,1
615,0.447782,0.501555,0.401413,0.498291,0.537533,0.617385,0.437888,0.554925,0.609661,1
616,0.505771,0.520498,0.333964,0.768962,0.483894,0.506382,0.269195,0.480972,0.665371,0
617,0.448927,0.541703,0.474379,0.640062,0.583693,0.687332,0.340839,0.532673,0.804176,1
618,0.645935,0.486538,0.130572,0.49699,0.581699,0.334116,0.289746,0.5231,0.48374,0
619,0.60879,0.559235,0.392182,0.537669,0.581699,0.446163,0.518798,0.507638,0.692452,1
620,0.505771,0.493423,0.323085,0.532281,0.59239,0.198236,0.302248,0.531885,0.516793,0
621,0.505771,0.529461,0.497647,0.510495,0.60561,0.435268,0.584169,0.398709,0.276621,1
622,0.287789,0.565685,0.689687,0.64176,0.428017,0.563511,0.442867,0.370317,0.516101,1
623,0.458051,0.569208,0.525609,0.379811,0.615621,0.363257,0.342722,0.73394,0.673879,1
624,0.448307,0.498818,0.465183,0.482774,0.585909,0.505275,0.344769,0.532673,0.546939,1
625,0.546348,0.511712,0.364331,0.646983,0.581699,0.370388,0.408219,0.588791,0.662419,0
626,0.396299,0.568852,0.651441,0.522523,0.540302,0.438025,0.505762,0.334363,0.471821,1
627,0.505771,0.613887,0.288137,0.490128,0.59488,0.448797,0.507337,0.669588,0.21837,0
628,0.533473,0.699742,0.597328,0.327547,0.597168,0.475166,0.532817,0.545298,0.365698,1
629,0.505771,0.47777,0.340366,0.668168,0.477087,0.414064,0.636035,0.741169,0.437645,0
630,0.565582,0.604858,0.385881,0.543161,0.602713,0.402093,0.666092,0.197298,0.487608,0
631,0.505771,0.523527,0.172558,0.47052,0.581699,0.543345,0.578224,0.345074,0.532572,0
632,0.505771,0.485842,0.234112,0.397891,0.581699,0.222623,0.281421,0.482522,0.512715,0
633,0.388089,0.559861,0.506289,0.54281,0.498324,0.472273,0.331115,0.70497,0.42082,1
634,0.595679,0.561386,0.344379,0.41222,0.581699,0.432741,0.509249,0.653708,0.638628,1
635,0.479694,0.535955,0.322558,0.578685,0.639742,0.402742,0.579428,0.545535,0.18775,0
636,0.435572,0.594947,0.640851,0.458723,0.581699,0.536247,0.367503,0.374731,0.593802,1
637,0.469775,0.394606,0.204431,0.73643,0.604349,0.415293,0.313496,0.629287,0.438895,0
638,0.334364,0.627672,0.630928,0.336635,0.504079,0.456488,0.334915,0.532673,0.505909,1
639,0.58223,0.624349,0.219661,0.270249,0.581699,0.487961,0.488555,0.64007,0.392131,0
640,0.505771,0.649697,0.21777,0.300485,0.69641,0.269113,0.266185,0.666279,0.172917,0
641,0.505771,0.628977,0.443282,0.325253,0.570965,0.493971,0.451599,0.532673,0.79723,1
642,0.404978,0.532109,0.324443,0.503022,0.581699,0.389093,0.616276,0.532673,0.405017,0
643,0.47321,0.500482,0.263349,0.71396,0.544971,0.485155,0.394177,0.326313,0.396426,0
644,0.590975,0.510456,0.177318,0.552555,0.617332,0.28446,0.502486,0.719677,0.355754,0
645,0.505771,0.705365,0.416985,0.304344,0.683296,0.513158,0.502148,0.386463,0.54003,1
646,0.505771,0.631821,0.191011,0.493546,0.581699,0.366795,0.412315,0.532673,0.346391,0
647,0.750691,0.603735,0.27035,0.490976,0.581699,0.401731,0.551377,0.543619,0.388557,0
648,0.369388,0.579808,0.727213,0.54293,0.486475,0.649503,0.403208,0.417807,0.2835,1
649,0.497443,0.530742,0.444742,0.769676,0.507611,0.212389,0.524508,0.627434,0.178802,0
650,0.467771,0.572146,0.217777,0.268152,0.581699,0.256153,0.514464,0.414664,0.519438,0
651,0.468246,0.535837,0.247668,0.187776,0.581699,0.445555,0.331619,0.532673,0.442813,0
652,0.645899,0.630734,0.227047,0.389343,0.675136,0.343396,0.414117,0.707097,0.548013,0
653,0.42647,0.563359,0.322321,0.588653,0.517535,0.403168,0.629584,0.587597,0.673715,0
654,0.448129,0.52384,0.243148,0.372661,0.627643,0.62379,0.390176,0.416671,0.578636,0
655,0.471715,0.600476,0.38163,0.489723,0.557775,0.435158,0.465629,0.265005,0.56891,1
656,0.510282,0.383777,0.184416,0.633478,0.569281,0.169621,0.34739,0.656978,0.442965,0
657,0.579746,0.584918,0.388547,0.560616,0.617627,0.445576,0.283996,0.540663,0.280714,0
658,0.547513,0.589663,0.372257,0.406411,0.609306,0.413136,0.212667,0.509596,0.237687,0
659,0.396811,0.387638,0.33137,0.727436,0.524018,0.303787,0.623321,0.603612,0.583503,0
660,0.538852,0.525233,0.392522,0.539283,0.588446,0.328654,0.6126,0.566683,0.426015,0
661,0.505771,0.620771,0.187233,0.56465,0.475614,0.47432,0.477613,0.40989,0.399205,0
662,0.524298,0.590103,0.205061,0.666559,0.513198,0.404335,0.390392,0.590412,0.466844,0
663,0.715371,0.590132,0.14355,0.535924,0.666311,0.250349,0.307014,0.745614,0.453119,0
664,0.505771,0.51257,0.3073,0.444793,0.581699,0.361247,0.496133,0.630863,0.240811,0
665,0.560462,0.676641,0.104254,0.508221,0.581699,0.636218,0.54928,0.541498,0.460507,0
666,0.505771,0.392626,0.849491,0.174212,0.670626,0.247469,0.458491,0.38549,0.104133,1
667,0.45244,0.544268,0.379926,0.451621,0.495838,0.381353,0.636867,0.498815,0.489474,1
668,0.686864,0.632328,0.200604,0.683955,0.581699,0.455352,0.444765,0.532673,0.282973,0
669,0.505771,0.504778,0.479031,0.607886,0.708548,0.760138,0.488995,0.524951,0.193852,1
670,0.635214,0.640737,0.371706,0.675541,0.413854,0.497958,0.28709,0.477351,0.410122,0
671,0.505771,0.538298,0.233847,0.701681,0.581699,0.189167,0.267602,0.395922,0.474005,0
672,0.581531,0.596181,0.249127,0.712205,0.581699,0.317641,0.505877,0.436085,0.548482,0
673,0.583265,0.565803,0.272617,0.408794,0.591574,0.605794,0.619212,0.483974,0.467029,0
674,0.352283,0.425238,0.506263,0.552601,0.723751,0.568405,0.489656,0.555818,0.679898,1
675,0.641273,0.549759,0.326809,0.564972,0.635416,0.543166,0.667507,0.51467,0.330875,0
676,0.526615,0.627349,0.283812,0.71032,0.412483,0.646421,0.483772,0.540048,0.327571,0
677,0.650524,0.562522,0.399916,0.408916,0.584373,0.499471,0.411392,0.374789,0.575182,1
678,0.297732,0.424094,0.386541,0.645152,0.581699,0.639988,0.446111,0.570401,0.256102,0
679,0.557636,0.613152,0.344437,0.459147,0.581699,0.599092,0.448108,0.668568,0.695389,1
680,0.478903,0.664999,0.154448,0.437706,0.267692,0.392191,0.407146,0.597485,0.372883,0
681,0.258798,0.397062,0.433742,0.365647,0.737868,0.362448,0.57456,0.509702,0.7412,1
682,0.569061,0.503901,0.346759,0.585556,0.752114,0.489408,0.448807,0.692702,0.693029,0
683,0.328258,0.571027,0.222803,0.471182,0.581699,0.787499,0.353292,0.565551,0.478147,0
684,0.505771,0.570336,0.206112,0.369406,0.555921,0.386696,0.553352,0.520101,0.493277,0
685,0.285321,0.478876,0.301469,0.478496,0.574227,0.62374,0.44892,0.532673,0.364747,0
686,0.636285,0.562328,0.547281,0.397642,0.573323,0.427908,0.634479,0.637931,0.603377,1
687,0.421338,0.54727,0.341957,0.686724,0.560333,0.228911,0.415439,0.596888,0.652262,0
688,0.679616,0.61044,0.266518,0.563277,0.547612,0.476402,0.285067,0.463463,0.225948,0
689,0.631605,0.662088,0.123442,0.795054,0.424475,0.329804,0.520727,0.62005,0.591176,0
690,0.551506,0.584009,0.27793,0.574041,0.44713,0.153062,0.366182,0.455506,0.335404,0
691,0.649244,0.585736,0.524037,0.512173,0.545636,0.468256,0.395197,0.717781,0.563455,1
692,0.125503,0.363267,0.676733,0.577392,0.70168,0.431857,0.330601,0.521392,0.286926,1
693,0.551799,0.604005,0.330686,0.390475,0.581699,0.274072,0.568294,0.469321,0.513013,0
694,0.480657,0.475391,0.519996,0.413381,0.581699,0.280298,0.482958,0.51428,0.692428,1
695,0.363245,0.457518,0.544021,0.444716,0.631397,0.570058,0.597546,0.500788,0.474897,1
696,0.681805,0.597095,0.408314,0.458072,0.532815,0.553953,0.683966,0.423189,0.668161,1
697,0.505771,0.490047,0.323913,0.636279,0.571336,0.257436,0.38821,0.641291,0.424184,0
698,0.446162,0.419983,0.428329,0.444436,0.852262,0.574395,0.81876,0.149577,0.67961,1
699,0.526889,0.440049,0.605359,0.300035,0.581699,0.450861,0.524942,0.507836,0.816289,1
700,0.557316,0.671903,0.230879,0.569466,0.581699,0.40536,0.50941,0.334767,0.550866,0
701,0.614055,0.561899,0.243859,0.539853,0.694977,0.234315,0.490754,0.617722,0.338191,0
702,0.459746,0.527994,0.316198,0.570558,0.528144,0.346574,0.409849,0.60928,0.371687,0
703,0.52382,0.675715,0.258522,0.612915,0.270467,0.385157,0.502451,0.657981,0.628221,0
704,0.438911,0.593226,0.322797,0.692886,0.40365,0.264251,0.574251,0.640069,0.30858,0
705,0.337571,0.466316,0.55733,0.436117,0.556402,0.455465,0.39985,0.532673,0.414938,1
706,0.385239,0.453833,0.45608,0.425649,0.692048,0.566676,0.587383,0.539792,0.601977,1
707,0.401773,0.610793,0.142971,0.696994,0.412726,0.278329,0.32493,0.582089,0.549346,0
708,0.412062,0.496797,0.506271,0.629419,0.6464,0.347311,0.315339,0.807172,0.310574,1
709,0.505771,0.538436,0.286151,0.563973,0.581699,0.578763,0.509014,0.43318,0.25064,0
710,0.375097,0.437054,0.56559,0.287364,0.704892,0.234415,0.315293,0.566723,0.495794,1
711,0.549199,0.586719,0.480207,0.740926,0.469697,0.304647,0.448995,0.575551,0.466756,1
712,0.262934,0.351237,0.433549,0.449572,0.581699,0.669221,0.43874,0.742817,0.461915,1
713,0.349835,0.441811,0.235703,0.623609,0.581699,0.447759,0.537132,0.658839,0.462179,0
714,0.41734,0.560817,0.224087,0.492518,0.459608,0.513517,0.612637,0.626252,0.574852,0
715,0.505771,0.529497,0.232348,0.413986,0.550164,0.437125,0.403139,0.746547,0.560563,0
716,0.35988,0.445891,0.419418,0.551996,0.581699,0.295365,0.424149,0.524035,0.465815,1
717,0.711518,0.626083,0.190766,0.632231,0.592231,0.379809,0.482475,0.488827,0.339683,0
718,0.529822,0.548705,0.395172,0.347451,0.455447,0.323309,0.621271,0.707909,0.367034,1
719,0.505771,0.409493,0.615287,0.688863,0.742198,0.455536,0.546015,0.167264,0.565699,1
720,0.364281,0.515916,0.352779,0.314376,0.581699,0.267598,0.480164,0.399537,0.701324,1
721,0.259512,0.4785,0.464045,0.383122,0.464279,0.558498,0.258866,0.621627,0.359155,1
722,0.632889,0.530705,0.390176,0.456447,0.581699,0.603682,0.29507,0.653903,0.610269,1
723,0.724138,0.705765,0.242469,0.651725,0.581699,0.725463,0.489318,0.499974,0.457935,0
724,0.707201,0.550077,0.261257,0.610148,0.713327,0.285973,0.696809,0.589342,0.178673,0
725,0.733459,0.619476,0.220553,0.560517,0.582842,0.279996,0.516152,0.681026,0.539741,0
726,0.01625,0.381216,0.635528,0.243483,0.439433,0.45736,0.42153,0.499624,0.396245,1
727,0.429804,0.575216,0.243593,0.565959,0.507639,0.437692,0.460604,0.426587,0.563001,0
728,0.507918,0.603769,0.405912,0.445905,0.332227,0.567014,0.543415,0.737803,0.805973,1
729,0.453592,0.51852,0.239457,0.405936,0.581699,0.464025,0.451478,0.544199,0.532281,0
730,0.580667,0.593747,0.37208,0.503092,0.560741,0.326138,0.448695,0.446669,0.637558,1
731,0.732344,0.619705,0.292875,0.650125,0.62645,0.270548,0.660636,0.666225,0.587982,0
732,0.390168,0.50882,0.185879,0.633083,0.581699,0.6176,0.227195,0.599258,0.574056,0
733,0.65996,0.598991,0.238213,0.533927,0.554295,0.688873,0.551001,0.53664,0.382297,0
734,0.505094,0.602802,0.323741,0.567534,0.457509,0.741129,0.249577,0.467909,0.537668,1
735,0.508278,0.530573,0.297883,0.357917,0.539888,0.32884,0.484352,0.435653,0.432222,0
736,0.5885,0.551929,0.405966,0.699493,0.630161,0.256846,0.63384,0.435487,0.310063,0
737,0.460447,0.568829,0.177048,0.571163,0.581699,0.413664,0.552706,0.532673,0.666848,0
738,0.440127,0.5634,0.195525,0.874489,0.554066,0.284829,0.478388,0.381831,0.482803,0
739,0.483725,0.542156,0.221149,0.721961,0.581699,0.290464,0.594089,0.548765,0.449472,0
740,0.504418,0.593632,0.180265,0.666486,0.485577,0.30082,0.563056,0.542252,0.474239,0
741,0.331304,0.489632,0.557267,0.45759,0.50694,0.45052,0.213059,0.532673,0.505679,1
742,0.548498,0.573277,0.117419,0.534628,0.581699,0.373785,0.219086,0.613655,0.429,0
743,0.581265,0.4762,0.549464,0.684923,0.581699,0.523888,0.385946,0.772073,0.244634,1
744,0.534386,0.50289,0.221009,0.33638,0.705462,0.248819,0.363491,0.531824,0.489691,0
745,0.577296,0.502374,0.461147,0.567782,0.718011,0.386764,0.407304,0.699662,0.363676,1
746,0.505771,0.591948,0.454177,0.437981,0.581699,0.446544,0.533622,0.517808,0.537038,1
747,0.550156,0.524881,0.292336,0.689047,0.668099,0.813573,0.466526,0.728445,0.554388,0
748,0.482197,0.579714,0.382917,0.574482,0.468093,0.463774,0.145609,0.244705,0.251035,0
749,0.505771,0.624879,0.362301,0.54454,0.533968,0.254968,0.405566,0.649185,0.604909,0
750,0.45171,0.502591,0.376215,0.433735,0.619937,0.384398,0.423881,0.484626,0.401779,0
751,0.385992,0.549833,0.184718,0.464457,0.581699,0.342649,0.370079,0.594458,0.328974,0
752,0.407134,0.406264,0.519757,0.383403,0.581699,0.560032,0.222529,0.447277,0.182719,1
753,0.54959,0.498398,0.366992,0.418713,0.581699,0.451421,0.255085,0.521147,0.804914,1
754,0.612959,0.504801,0.332803,0.279623,0.673612,0.354671,0.298828,0.535088,0.366506,0
755,0.706353,0.628262,0.321337,0.597609,0.559828,0.488457,0.487708,0.477558,0.434896,0
756,0.244746,0.389129,0.353309,0.361152,0.581699,0.447477,0.478519,0.452305,0.856127,1
757,0.597889,0.66745,0.242058,0.93365,0.581699,0.421101,0.491459,0.541651,0.332886,0
758,0.505771,0.571,0.212872,0.684293,0.579056,0.322114,0.244824,0.613071,0.532903,0
759,0.599321,0.608881,0.438563,0.485476,0.437063,0.458088,0.407725,0.370189,0.510561,1
760,0.541567,0.529049,0.350617,0.741252,0.718491,0.408015,0.532918,0.745332,0.639695,0
761,0.703575,0.585103,0.574133,0.626075,0.591453,0.491374,0.302879,0.406841,0.580797,1
762,0.373263,0.499175,0.261967,0.490419,0.581699,0.372734,0.215242,0.716479,0.424607,0
763,0.690261,0.674866,0.21168,0.766962,0.466081,0.254073,0.315694,0.500701,0.622413,0
764,0.505771,0.403824,0.425066,0.292506,0.581699,0.303157,0.528993,0.686343,0.673126,1
765,0.566829,0.578852,0.317486,0.645989,0.520817,0.310156,0.729047,0.511381,0.410219,0
766,0.637724,0.544871,0.452556,0.674487,0.581699,0.237906,0.739382,0.586337,0.503139,1
767,0.49431,0.58177,0.268755,0.757663,0.44716,0.525431,0.290111,0.629205,0.343394,0
768,0.752721,0.553907,0.222412,0.548964,0.796654,0.278609,0.569851,0.584062,0.448685,0
769,0.409236,0.418676,0.562385,0.415096,0.813245,0.203105,0.451756,0.616627,0.39826,1
770,0.381121,0.475923,0.618528,0.737419,0.608636,0.495907,0.484071,0.523994,0.467381,1
771,0.505771,0.470605,0.634687,0.401187,0.776919,0.529308,0.386977,0.493514,0.342521,1
772,0.48356,0.470602,0.562751,0.196796,0.683273,0.363783,0.577321,0.520279,0.417052,1
773,0.489166,0.536902,0.255929,0.461006,0.540478,0.389469,0.641277,0.605659,0.4315,0
774,0.505771,0.666424,0.205821,0.518592,0.612014,0.36903,0.422116,0.650796,0.351351,0
775,0.505771,0.571858,0.439092,0.551576,0.499748,0.398731,0.625356,0.492837,0.595495,1
776,0.505771,0.39331,0.458144,0.627376,0.748749,0.419439,0.635199,0.421075,0.658005,1
777,0.613514,0.67574,0.11398,0.516736,0.397611,0.135342,0.260014,0.334186,0.489969,0
778,0.605261,0.491727,0.592575,0.453438,0.581699,0.407136,0.461891,0.454294,0.385293,1
779,0.542239,0.550699,0.411498,0.592768,0.538619,0.410874,0.686545,0.385627,0.579533,1
780,0.581269,0.567408,0.391614,0.508181,0.502322,0.505986,0.652604,0.243144,0.671928,1
781,0.382326,0.373835,0.4511,0.400161,0.900315,0.421326,0.534272,0.629852,0.629455,1
782,0.571292,0.702118,0.15251,0.742884,0.285701,0.432622,0.49006,0.317246,0.222452,0
783,0.849863,0.655444,0.130949,0.747369,0.618269,0.55728,0.509075,0.509415,0.297782,0
784,0.53161,0.483972,0.293929,0.643855,0.784932,0.670287,0.481545,0.462588,0.140128,0
785,0.3672,0.587346,0.346215,0.318119,0.288486,0.345214,0,0.697695,0.518483,1
786,0.505771,0.707244,0.155361,0.473437,0.235353,0.298174,0.314454,0.561174,0.600624,0
787,0.49628,0.624474,0.164459,0.787693,0.581699,0.475062,0.460299,0.490113,0.42259,0
788,0.687293,0.49141,0.492335,0.415265,0.83358,0.685216,0.593859,0.366445,0.477514,1
789,0.382944,0.449355,0.400432,0.300031,0.675552,0.540649,0.495122,0.262706,0.068544,0
790,0.35068,0.503311,0.218888,0.701859,0.581699,0.488028,0.381588,0.722787,0.441578,0
791,0.455458,0.488549,0.537314,0.391353,0.662875,0.295095,0.20661,0.531288,0.747598,1
792,0.281438,0.419815,0.42016,0.296402,0.690188,0.535974,0.595851,0.510087,0.383438,1
793,0.494059,0.592794,0.475199,0.443022,0.350059,0.368762,0.409663,0.619346,0.595315,1
794,0.653326,0.648047,0.106172,0.695872,0.539799,0.486283,0.45634,0.64767,0.332933,0
795,0.733458,0.64435,0.235993,0.498696,0.487923,0.301031,0.435011,0.513337,0.708993,0
796,0.627691,0.67115,0.110238,0.700935,0.581699,0.409439,0.377449,0.532673,0.385696,0
797,0.526341,0.601269,0.297688,0.621561,0.469689,0.550463,0.319735,0.763412,0.446943,0
798,0.668051,0.580478,0.381531,0.481637,0.617891,0.418129,0.336655,0.532673,0.368362,0
799,0.670939,0.607995,0.332828,0.762234,0.574776,0.464434,0.328683,0.435568,0.607994,0
800,0.521184,0.544865,0.364727,0.699507,0.552364,0.300038,0.147114,0.663612,0.610544,0
801,0.635776,0.594413,0.152221,0.666244,0.623349,0.26631,0.61563,0.548386,0.580214,0
802,0.579089,0.655586,0.296257,0.456669,0.335035,0.329486,0.47561,0.816257,0.612265,0
803,0.557455,0.61388,0.22723,0.446821,0.432792,0.501398,0.496075,0.503988,0.496418,0
804,0.333296,0.449258,0.58055,0.355567,0.527266,0.560312,0.460177,0.455714,0.58742,1
805,0.778934,0.578808,0.259057,0.613266,0.683701,0.688676,0.588386,0.64912,0.429243,0
806,0.338539,0.416461,0.44158,0.196519,0.692596,0.447197,0.495421,0.522085,0.282161,1
807,0.704945,0.639629,0.479897,0.576511,0.432117,0.305492,0.459872,0.675598,0.62145,1
808,0.505771,0.490222,0.316134,0.759012,0.839952,0.353247,0.662182,0.615736,0.544376,0
809,0.416253,0.520773,0.419372,0.350046,0.531276,0.33028,0.619228,0.388766,0.326929,1
810,0.070708,0.311162,0.272581,0.699905,0.895876,0.246228,0.315329,0.347556,0.70157,0
811,0.505771,0.681226,0.166204,0.56779,0.581699,0.241946,0.233201,0.647421,0.463322,0
812,0.677559,0.621368,0.246886,0.640506,0.530725,0.433916,0.51422,0.519933,0.33487,0
813,0.459694,0.60681,0.148473,0.755039,0.410371,0.571577,0.410953,0.573499,0.657088,0
814,0.454678,0.571741,0.11033,0.857208,0.557703,0.332417,0.542255,0.596896,0.694917,0
815,0.505771,0.562378,0.385958,0.405455,0.796198,0.407677,0.444355,0.4769,0.721567,1
816,0.389444,0.550602,0.231928,0.57434,0.480976,0.503006,0.452893,0.767213,0.707229,0
817,0.505771,0.611315,0.353519,0.556205,0.439609,0.320389,0.351847,0.614957,0.685642,1
818,0.388105,0.472978,0.510634,0.331282,0.619541,0.539995,0.531281,0.467936,0.268708,1
819,0.52677,0.617597,0.196449,0.758219,0.581699,0.31039,0.539989,0.754867,0.405042,0
820,0.505771,0.465289,0.420861,0.460064,0.617063,0.345902,0.438196,0.404446,0.283871,0
821,0.373353,0.471133,0.460997,0.465168,0.588849,0.256888,0.623107,0.497622,0.153063,0
822,0.328158,0.501287,0.454143,0.501736,0.641379,0.348407,0.451488,0.59904,0.655683,1
823,0.484581,0.598531,0.205343,0.551988,0.581699,0.256269,0.331869,0.720733,0.677977,0
824,0.457161,0.452922,0.256383,0.358826,0.600496,0.444029,0.340062,0.467524,0.588295,0
825,0.48853,0.433219,0.462805,0.539086,0.581699,0.488376,0.351676,0.590021,0.265556,1
826,0.49299,0.425444,0.330371,0.376668,0.603746,0.501754,0.312744,0.526982,0.491191,0
827,0.505771,0.522767,0.363529,0.613249,0.581699,0.294602,0.576525,0.616815,0.72042,0
828,0.563489,0.656734,0.254553,0.629115,0.527918,0.423494,0.591202,0.451739,0.412275,0
829,0.394831,0.620573,0.357512,0.476265,0.581699,0.404617,0.400005,0.353642,0.5939,1
830,0.463743,0.680043,0.300236,0.647256,0.491807,0.455743,0.456583,0.526511,0.554622,0
831,0.477479,0.53106,0.555546,0.745564,0.612263,0.553599,0.253592,0.534807,0.48793,1
832,0.505771,0.540105,0.390554,0.586391,0.63524,0.432426,0.309873,0.589865,0.677762,1
833,0.444548,0.691541,0.362895,0.703309,0.581699,0.512682,0.453171,0.649318,0.466927,0
834,0.339903,0.566233,0.382262,0.572613,0.554169,0.187859,0.607853,0.691038,0.558803,0
835,0.531488,0.493053,0.278114,0.333326,0.586956,0.474788,0.287391,0.647394,0.197834,0
836,0.575349,0.556822,0.202297,0.544644,0.583591,0.463864,0.488471,0.571661,0.390262,0
837,0.504416,0.611241,0.405062,0.68778,0.546752,0.437068,0.411894,0.51344,0.538669,1
838,0.505771,0.606858,0.20269,0.527647,0.492831,0.241212,0.507043,0.74602,0.672316,0
839,0.543686,0.634114,0.406243,0.642593,0.451518,0.566192,0.615853,0.548891,0.269098,1
840,0.335103,0.556626,0.523121,0.643417,0.669677,0.586452,0.390975,0.683814,0.242162,1
841,0.576012,0.58909,0.13777,0.644971,0.64325,0.27518,0.633,0.855942,0.339587,0
842,0.30664,0.59986,0.494421,0.648009,0.580866,0.352252,0.520304,0.316704,0.256178,1
843,0.56184,0.498676,0.259843,0.545545,0.581699,0.567324,0.340722,0.708337,0.432713,0
844,0.648974,0.69204,0.142526,0.741153,0.557068,0.349497,0.651178,0.793049,0.206848,0
845,0.470889,0.707487,0.148758,0.544124,0.522155,0.453114,0.453153,0.569453,0.304562,0
846,0.502344,0.440312,0.476951,0.39441,0.581699,0.595072,0.724875,0.471668,0.412814,1
847,0.642166,0.538199,0.384318,0.56018,0.624135,0.647112,0.500168,0.609838,0.575637,1
848,0.611516,0.572867,0.268698,0.611139,0.581699,0.290906,0.639584,0.546412,0.257873,0
849,0.481368,0.395553,0.5029,0.484625,0.665225,0.426338,0.362201,0.564887,0.711757,1
850,0.505771,0.587594,0.336698,0.488405,0.525166,0.675202,0.603634,0.319662,0.52718,1
851,0.463759,0.600791,0.558122,0.680168,0.586006,0.230426,0.342349,0.568635,0.364677,1
852,0.482366,0.524321,0.293927,0.279372,0.474949,0.364179,0.28694,0.742172,0.690587,1
853,0.359955,0.346142,0.665094,0.541647,0.581699,0.359038,0.560298,0.418289,0.663154,1
854,0.592596,0.54686,0.281548,0.619249,0.683437,0.197324,0.606364,0.351476,0.746986,0
855,0.389686,0.380696,0.612405,0.425173,0.581699,0.283171,0.467496,0.327529,0.572197,1
856,0.565585,0.641005,0.323304,0.67763,0.492553,0.420395,0.765818,0.584039,0.62662,0
857,0.358432,0.53406,0.443241,0.454284,0.581699,0.230816,0.314463,0.68916,0.677851,1
858,0.46396,0.742056,0.532863,0.636188,0.581699,0.259787,0.293257,0.647589,0.366888,1
859,0.505771,0.564464,0.457489,0.52639,0.612231,0.462032,0.673386,0.426183,0.568369,1
860,0.627369,0.61881,0.260444,0.550957,0.582489,0.362918,0.542319,0.376134,0.533964,0
861,0.505771,0.498087,0.462648,0.485169,0.573017,0.349768,0.338866,0.497127,0.369308,1
862,0.582833,0.61016,0.274969,0.658914,0.540445,0.486234,0.459484,0.483813,0.284968,0
863,0.548957,0.663435,0.114992,0.597993,0.57527,0.544482,0.461071,0.594917,0.516012,0
864,0.55443,0.457774,0.250015,0.365297,0.572084,0.593078,0.342824,0.703733,0.34152,0
865,0.514852,0.567947,0.298375,0.407504,0.518615,0.447712,0.413586,0.248677,0.615534,0
866,0.499074,0.443593,0.314445,0.365221,0.673291,0.427006,0.579107,0.390584,0.571972,0
867,0.335157,0.631559,0.392253,0.705382,0.507666,0.393572,0.399167,0.480806,0.483836,0
868,0.505771,0.62495,0.156303,0.638877,0.513702,0.37653,0.391907,0.575096,0.327743,0
869,0.289959,0.55479,0.41784,0.62545,0.581699,0.406873,0.340415,0.532673,0.544587,1
870,0.599282,0.602969,0.284926,0.625974,0.581699,0.506919,0.65522,0.568638,0.400778,0
871,0.763967,0.627581,0.168305,0.482929,0.474323,0.407045,0.481793,0.470526,0.51141,0
872,0.485121,0.465963,0.347206,0.528315,0.626344,0.429749,0.396819,0.442277,0.258535,0
873,0.710997,0.672914,0.056683,0.753648,0.581699,0.27699,0.618528,0.662905,0.492136,0
874,0.505771,0.622268,0.156231,0.525454,0.567349,0.358238,0.511416,0.459104,0.451363,0
875,0.320699,0.510787,0.239468,0.636715,0.696607,0.589484,0.345846,0.522827,0.439823,0
876,0.572919,0.465888,0.35199,0.558534,0.63626,0.432235,0.10601,0.580611,0.376654,0
877,0.363574,0.460058,0.55451,0.500189,0.703529,0.603081,0.571171,0.387859,0.640738,1
878,0.46192,0.605405,0.238517,0.524692,0.498744,0.215914,0.382407,0.532673,0.370234,0
879,0.47875,0.584427,0.471812,0.5227,0.493551,0.315574,0.322398,0.431128,0.532795,1
880,0.411872,0.479305,0.44953,0.457686,0.581699,0.620406,0.407208,0.72422,0.571378,1
881,0.469364,0.581479,0.378482,0.464047,0.525088,0.553316,0.408996,0.605853,0.587247,1
882,0.607801,0.554504,0.16856,0.472841,0.506771,0.706011,0.367777,0.511833,0.202286,0
883,0.425284,0.504277,0.524086,0.633087,0.62129,0.410254,0.476587,0.553048,0.49573,1
884,0.385943,0.501326,0.446407,0.618833,0.581699,0.709782,0.299772,0.508344,0.45783,1
885,0.399781,0.418194,0.387636,0.55613,0.581699,0.618782,0.650373,0.439944,0.388876,1
886,0.759494,0.547517,0.207496,0.530998,0.550018,0.595504,0.556406,0.576317,0.429657,0
887,0.351201,0.417222,0.369555,0.287472,0.65787,0.630031,0.359392,0.532673,0.451258,1
888,0.513078,0.554736,0.21641,0.597268,0.651454,0.762526,0.343929,0.574377,0.445555,0
889,0.423103,0.43609,0.420821,0.465292,0.628871,0.507772,0.519941,0.426602,0.502432,1
890,0.526931,0.462749,0.246609,0.453452,0.68747,0.695938,0.372251,0.628265,0.582654,0
891,0.559535,0.629418,0.460019,0.705976,0.531983,0.490783,0.50318,0.456714,0.781023,1
892,0.338983,0.503718,0.539072,0.66446,0.685076,0.201939,0.482158,0.387089,0.42525,1
893,0.646845,0.540617,0.326819,0.429479,0.482354,0.281321,0.406653,0.677753,0.757594,1
894,0.392297,0.467331,0.428546,0.604378,0.675068,0.558626,0.207272,0.475887,0.348673,1
895,0.320537,0.549959,0.599931,0.735778,0.593839,0.36562,0.226953,0.607898,0.248766,1
896,0.501942,0.500155,0.503528,0.645673,0.563765,0.253184,0.298161,0.421692,0.737955,1
897,0.728617,0.488402,0.126346,0.408258,0.593078,0.192559,0.431798,0.404256,0.704239,0
898,0.484591,0.337096,0.2832,0.292206,0.581699,0.336968,0.323151,0.781661,0.490744,0
899,0.577173,0.433309,0.292502,0.510024,0.581699,0.733491,0.540528,0.444972,0.495524,0
900,0.505771,0.522018,0.224877,0.480524,0.615175,0.424046,0.370239,0.527768,0.513771,0
901,0.524641,0.489223,0.08815,0.501945,0.695601,0.312491,0.700533,0.590214,0.372237,0
902,0.423124,0.555436,0.541571,0.554054,0.581699,0.382025,0.444363,0.508879,0.460287,1
903,0.591814,0.540894,0.308275,0.548404,0.607722,0.362777,0.457911,0.587764,0.75411,0
904,0.424966,0.409916,0.272187,0.445707,0.677011,0.471321,0.542527,0.499994,0.495783,0
905,0.505771,0.525116,0.555608,0.674063,0.666058,0.512885,0.525106,0.406206,0.292746,1
906,0.505771,0.611425,0.585327,0.757613,0.573413,0.658597,0.46505,0.657395,0.280608,1
907,0.378327,0.626238,0.643877,0.695168,0.549479,0.370554,0.321201,0.471057,0.466718,1
908,0.734433,0.548127,0.127858,0.406764,0.576705,0.676033,0.515774,0.227423,0.590456,0
909,0.501203,0.435015,0.290513,0.434525,0.663361,0.507119,0.325387,0.359105,0.501304,0
910,0.490829,0.544394,0.315847,0.623041,0.642237,0.346281,0.614587,0.526977,0.516239,0
911,0.505771,0.604807,0.142267,0.543716,0.581699,0.554892,0.282886,0.299188,0.766638,0
912,0.591005,0.538178,0.291764,0.553433,0.671553,0.328253,0.566909,0.532673,0.212786,0
913,0.588491,0.54692,0.182746,0.388023,0.512255,0.383976,0.423116,0.652754,0.252356,0
914,0.413654,0.518694,0.327837,0.465469,0.619381,0.635426,0.594132,0.678637,0.501954,1
915,0.439526,0.688115,0.356796,0.605753,0.503477,0.530926,0.569933,0.465433,0.487869,0
916,0.521647,0.542348,0.356812,0.394575,0.500586,0.472358,0.477608,0.575788,0.509524,1
917,0.542334,0.470267,0.23957,0.445334,0.625629,0.303922,0.573255,0.335685,0.357615,0
918,0.48458,0.515707,0.203853,0.437086,0.581699,0.52255,0.705226,0.615628,0.495781,0
919,0.40049,0.595161,0.527081,0.505749,0.581699,0.463231,0.717508,0.417655,0.49555,1
920,0.505771,0.638434,0.590577,0.706694,0.58076,0.33651,0.548678,0.518884,0.44768,1
921,0.351575,0.54356,0.626763,0.688294,0.722207,0.307745,0.418618,0.495908,0.159141,1
922,0.407199,0.502337,0.444029,0.56447,0.581699,0.311305,0.493848,0.452089,0.478,1
923,0.505771,0.609907,0.410757,0.425455,0.389483,0.43344,0.369903,0.571363,0.318397,1
924,0.762718,0.439852,0.110751,0.353354,0.581699,0.255614,0.540103,0.372657,0.540415,0
925,0.543009,0.551054,0.181019,0.512593,0.499861,0.050424,0.60252,0.503875,0.425198,0
926,0.631877,0.511379,0.285915,0.446643,0.534472,0.416032,0.571473,0.482822,0.278888,0
927,0.482264,0.565734,0.426966,0.627277,0.604765,0.349661,0.663882,0.46694,0.436001,1
928,0.505771,0.365158,0.21799,0.421225,0.696014,0.308166,0.424479,0.583777,0.410208,0
929,0.505771,0.560944,0.200277,0.569513,0.581699,0.381912,0.404146,0.532673,0.565176,0
930,0.363444,0.408175,0.637115,0.446468,0.700562,0.382387,0.689257,0.55127,0.217549,1
931,0.496779,0.407463,0.354222,0.324219,0.591617,0.526554,0.324272,0.633006,0.325149,0
932,0.641701,0.570261,0.243617,0.649228,0.581699,0.411667,0.475815,0.553009,0.188254,0
933,0.679976,0.568203,0.278087,0.454174,0.516195,0.374594,0.569402,0.353194,0.481103,0
934,0.335742,0.536544,0.572939,0.592335,0.58597,0.625995,0.29321,0.519084,0.384183,1
935,0.741867,0.556633,0.289978,0.43002,0.596537,0.270689,0.464345,0.498278,0.656332,0
936,0.410466,0.493448,0.579782,0.44731,0.564036,0.301981,0.396508,0.566176,0.445901,1
937,0.505771,0.527902,0.177396,0.360307,0.556083,0.264877,0.496727,0.63707,0.614317,0
938,0.505771,0.73097,0.409353,0.670821,0.476723,0.526989,0.457558,0.55464,0.470991,1
939,0.772235,0.586419,0.189263,0.766267,0.627568,0.370201,0.508616,0.529704,0.560821,0
940,0.640488,0.65747,0.269987,0.531184,0.544146,0.480788,0.398467,0.621377,0.416781,0
941,0.505771,0.598559,0.088309,0.492825,0.579644,0.153641,0.608525,0.722672,0.156247,0
942,0.4892,0.570857,0.332226,0.737613,0.734841,0.363996,0.386925,0.395207,0.317649,0
943,0.632979,0.555621,0.245068,0.446045,0.523043,0.59506,0.443695,0.560858,0.402554,0
944,0.303785,0.371816,0.331278,0.228504,0.493763,0.429529,0.532067,0.547313,0.404292,1
945,0.480702,0.660069,0.374232,0.734353,0.545863,0.595167,0.419174,0.547728,0.619081,1
946,0.423181,0.504868,0.723329,0.49019,0.604032,0.160814,0.404525,0.476373,0.52455,1
947,0.484563,0.53038,0.219291,0.377257,0.553158,0.518259,0.49257,0.532673,0.340333,0
948,0.527921,0.623536,0.414623,0.658194,0.581699,0.649765,0.595033,0.485636,0.543606,1
949,0.462154,0.469018,0.497048,0.316332,0.555802,0.600543,0.55227,0.677919,0.316769,1
950,0.495028,0.517815,0.418005,0.462415,0.5739,0.525049,0.454003,0.566666,0.425373,1
951,0.66446,0.686087,0.080611,0.622184,0.581699,0.325979,0.408582,0.140864,0.420871,0
952,0.530143,0.627343,0.253697,0.689285,0.542319,0.492802,0.566347,0.645222,0.407187,0
953,0.470219,0.420504,0.2899,0.484547,0.581699,0.352606,0.608986,0.352083,0.439187,0
954,0.443174,0.595625,0.576603,0.460653,0.525895,0.648725,0.247543,0.45117,0.502327,1
955,0.647616,0.565675,0.367606,0.439204,0.547072,0.550272,0.619449,0.613965,0.492611,1
956,0.336651,0.587286,0.324263,0.488384,0.491337,0.301974,0.45302,0.721332,0.467642,0
957,0.755813,0.603371,0.180236,0.572751,0.486278,0.552034,0.604264,0.670177,0.286811,0
958,0.541019,0.654907,0.137122,0.546643,0.581699,0.441011,0.346319,0.439129,0.422908,0
959,0.438485,0.402587,0.325238,0.505686,0.634121,0.336376,0.429801,0.648968,0.610189,0
960,0.37688,0.504007,0.685364,0.509666,0.542106,0.228236,0.642315,0.573258,0.460017,1
961,0.484063,0.515092,0.317584,0.628916,0.700102,0.417714,0.483968,0.489303,0.353954,0
962,0.517101,0.596466,0.223144,0.614644,0.613708,0.547221,0.506378,0.259671,0.582686,0
963,0.46802,0.519114,0.246962,0.514802,0.645733,0.300039,0.486445,0.532673,0.376893,0
964,0.600626,0.592558,0.44891,0.491758,0.462141,0.654178,0.388691,0.538072,0.174474,1
965,0.570457,0.560995,0.330451,0.41781,0.581699,0.517934,0.385379,0.349692,0.636184,1
966,0.526208,0.49915,0.227084,0.409579,0.55555,0.271873,0.49938,0.399629,0.302764,0
967,0.433053,0.643505,0.419031,0.71322,0.581699,0.35657,0.416657,0.68645,0.551986,1
968,0.561177,0.570751,0.086989,0.427765,0.609451,0.438149,0.488418,0.448018,0.583226,0
969,0.368457,0.514573,0.570803,0.499735,0.601856,0.262483,0.410337,0.49169,0.604245,1
970,0.505771,0.544589,0.281063,0.459843,0.581699,0.392634,0.555183,0.553545,0.379716,0
971,0.457077,0.662319,0.372969,0.795761,0.53141,0.474751,0.43776,0.532673,0.221316,0
972,0.528161,0.582284,0.485942,0.584289,0.581699,0.368995,0.420438,0.641256,0.531895,1
973,0.317418,0.699099,0.389932,0.737096,0.593847,0.616384,0.370789,0.554092,0.678412,1
974,0.589082,0.466027,0.157505,0.36184,0.55516,0.211095,0.339866,0.573576,0.471161,0
975,0.350154,0.606517,0.459031,0.748622,0.591248,0.338462,0.509699,0.493689,0.387417,1
976,0.490224,0.533765,0.382384,0.613809,0.618605,0.450716,0.477385,0.716273,0.542594,0
977,0.476395,0.519852,0.261471,0.471309,0.5549,0.352818,0.216555,0.695288,0.097346,0
978,0.542548,0.57921,0.216155,0.457195,0.565887,0.473827,0.483166,0.708104,0.369331,0
979,0.583077,0.492324,0.328615,0.444349,0.579735,0.513785,0.61487,0.396447,0.347371,0
980,0.633591,0.529351,0.271453,0.377934,0.537892,0.304248,0.644913,0.47112,0.516684,0
981,0.626405,0.609146,0.22409,0.56333,0.550518,0.327936,0.640582,0.438231,0.439917,0
982,0.338385,0.609729,0.498525,0.659875,0.581699,0.230878,0.339858,0.504425,0.454413,1
983,0.556491,0.540628,0.389786,0.503615,0.628119,0.507179,0.503575,0.355394,0.307471,0
984,0.505771,0.692721,0.429712,0.651111,0.518573,0.328403,0.366281,0.734219,0.338678,0
985,0.434808,0.606199,0.185652,0.538546,0.581699,0.284315,0.422694,0.794638,0.41911,0
986,0.546521,0.556001,0.186815,0.492859,0.625671,0.418538,0.63846,0.423252,0.341849,0
987,0.340821,0.554757,0.782861,0.689882,0.600261,0.226357,0.634802,0.510507,0.470216,1
988,0.505771,0.519415,0.436612,0.336373,0.492621,0.57322,0.536358,0.514059,0.378677,1
989,0.385147,0.546208,0.321469,0.586397,0.624809,0.416764,0.475728,0.647647,0.289076,0
990,0.391235,0.428029,0.471629,0.404776,0.687136,0.537354,0.57721,0.644942,0.927858,1
991,0.454583,0.529848,0.371671,0.494923,0.581699,0.438413,0.53915,0.517912,0.626661,1
992,0.505771,0.650485,0.650541,0.645222,0.581699,0.624521,0.442328,0.532673,0.645373,1
993,0.596282,0.666581,0.216928,0.569206,0.524588,0.604864,0.630801,0.464984,0.523324,0
994,0.47257,0.535194,0.338194,0.452788,0.581699,0.352602,0.286758,0.329378,0.602327,0
995,0.593741,0.566983,0.13802,0.55611,0.581699,0.632865,0.508444,0.655276,0.29081,0
996,0.488302,0.432769,0.393592,0.509529,0.579159,0.366036,0.529003,0.700653,0.419099,0
997,0.456105,0.667616,0.434044,0.659284,0.581699,0.420705,0.550311,0.588362,0.611026,1
998,0.463574,0.573501,0.313209,0.590391,0.680512,0.521636,0.521268,0.456297,0.185457,0
999,0.505771,0.685276,0.403122,0.709093,0.487709,0.52036,0.43379,0.37206,0.724945,1
1000,0.474918,0.486979,0.499334,0.439082,0.61053,0.133285,0.596109,0.280364,0.638595,1
1001,0.505771,0.593226,0.342386,0.568836,0.581699,0.684189,0.494669,0.726213,0.523266,1
1002,0.66597,0.599505,0.253344,0.403058,0.476801,0.38172,0.322692,0.598857,0.294318,0
1003,0.327283,0.502974,0.551276,0.470168,0.532774,0.393276,0.670492,0.499629,0.576708,1
1004,0.563203,0.65947,0.351571,0.591083,0.528903,0.327506,0.36151,0.398065,0.601558,0
1005,0.440631,0.692327,0.402365,0.576752,0.399085,0.526685,0.762145,0.636297,0.564523,1
1006,0.516489,0.472059,0.288045,0.427885,0.609587,0.325616,0.678657,0.475127,0.78881,0
1007,0.505771,0.68037,0.058778,0.515595,0.448157,0.650528,0.659694,0.682366,0.495622,0
1008,0.620936,0.498168,0.212833,0.48296,0.623681,0.663594,0.451278,0.575975,0.273818,0
1009,0.505771,0.534561,0.536239,0.720375,0.581699,0.184155,0.314785,0.577365,0.336865,1
1010,0.342676,0.518271,0.344124,0.456869,0.561866,0.307685,0.364514,0.512121,0.489413,0
1011,0.665655,0.550983,0.229423,0.581835,0.673384,0.274469,0.49867,0.508295,0.506567,0
1012,0.541549,0.483573,0.191578,0.362059,0.565794,0.763125,0.435297,0.312164,0.568592,0
1013,0.382015,0.671897,0.188437,0.584288,0.522644,0.332996,0.374547,0.527811,0.351894,0
1014,0.391991,0.477979,0.325764,0.380386,0.500707,0.575536,0.398026,0.471545,0.524405,1
1015,0.505771,0.57726,0.663143,0.662361,0.543843,0.501117,0.472165,0.573676,0.763118,1
1016,0.593997,0.630552,0.259454,0.714192,0.622609,0.559911,0.764741,0.605434,0.247724,0
1017,0.610791,0.612945,0.469383,0.515443,0.472185,0.576036,0.536489,0.641895,0.490902,1
1018,0.429511,0.621749,0.348943,0.700106,0.545885,0.459542,0.480626,0.500602,0.379206,0
1019,0.410291,0.458551,0.46089,0.521748,0.643301,0.270308,0.563034,0.524974,0.325516,1
1020,0.372785,0.425689,0.438164,0.488494,0.581699,0.420978,0.454823,0.593714,0.554725,1
1021,0.505771,0.700049,0.420953,0.799968,0.581699,0.463854,0.435765,0.645214,0.360816,0
1022,0.532765,0.581644,0.167345,0.670734,0.581699,0.456204,0.633153,0.350149,0.281354,0
1023,0.787706,0.656134,0.210211,0.560833,0.540731,0.340553,0.223519,0.387719,0.515957,0
1024,0.480684,0.706339,0.289865,0.740247,0.548916,0.453566,0.435679,0.498462,0.482787,0
1025,0.296444,0.462454,0.675935,0.408444,0.581699,0.42627,0.395939,0.69726,0.388045,1
1026,0.511386,0.451171,0.47013,0.427796,0.648605,0.610365,0.609848,0.63569,0.34126,1
1027,0.505771,0.681868,0.223393,0.641835,0.581699,0.463294,0.457278,0.413487,0.418349,0
1028,0.44355,0.442111,0.365969,0.354083,0.56353,0.643153,0.567629,0.411867,0.462047,1
1029,0.505771,0.476422,0.166976,0.562117,0.639313,0.325736,0.477738,0.459699,0.506033,0
1030,0.686324,0.667079,0.069351,0.487345,0.488373,0.257792,0.367418,0.631421,0.301153,0
1031,0.383993,0.385506,0.928425,0.590379,0.581699,0.546297,0.494867,0.462227,0.515073,1
1032,0.621223,0.431716,0.450382,0.391305,0.691031,0.370847,0.442478,0.602672,0.516273,1
1033,0.553495,0.549204,0.305699,0.549815,0.533534,0.326862,0.298239,0.523386,0.318953,0
1034,0.508423,0.611858,0.324214,0.724356,0.625187,0.263156,0.587706,0.675755,0.522512,0
1035,0.593574,0.59946,0.666848,0.57545,0.489317,0.321666,0.412715,0.565846,0.628812,1
1036,0.394593,0.397946,0.425231,0.469087,0.712405,0.513865,0.56334,0.408631,0.488446,1
1037,0.728673,0.520026,0.141167,0.355998,0.504204,0.262119,0.625496,0.550125,0.475411,0
1038,0.383438,0.52053,0.530296,0.606406,0.631644,0.444485,0.374852,0.869391,0.104773,1
1039,0.638414,0.364482,0.168152,0.261626,0.687941,0.52257,0.566312,0.490176,0.261152,0
1040,0.580301,0.580639,0.429647,0.641005,0.537054,0.437419,0.301747,0.513104,0.619107,1
1041,0.513212,0.557315,0.409046,0.380797,0.439577,0.354157,0.39186,0.181715,0.418871,1
1042,0.392821,0.663337,0.222999,0.725446,0.633707,0.455852,0.48049,0.532673,0.831315,0
1043,0.505771,0.758968,0.140936,0.732632,0.466184,0.250961,0.561243,0.583713,0.363335,0
1044,0.379984,0.568642,0.362358,0.602862,0.528441,0.380575,0.451114,0.668657,0.279019,0
1045,0.454937,0.68159,0.560466,0.690328,0.472546,0.307652,0.268708,0.474942,0.156155,1
1046,0.480964,0.544559,0.445102,0.44486,0.496939,0.378067,0.658775,0.436247,0.326717,1
1047,0.491644,0.591494,0.229492,0.539466,0.533345,0.680134,0.527139,0.566905,0.501473,0
1048,0.572394,0.644649,0.329272,0.585941,0.510168,0.350664,0.400997,0.633034,0.566251,0
1049,0.590861,0.568726,0.392005,0.633769,0.579184,0.558182,0.496452,0.570206,0.697714,1
1050,0.624785,0.366212,0.358811,0.399779,0.68281,0.395022,0.524601,0.579465,0.626533,1
1051,0.582489,0.561806,0.41539,0.571403,0.676715,0.728128,0.367925,0.581256,0.424717,1
1052,0.646123,0.633867,0.369554,0.568128,0.466046,0.659715,0.504122,0.355481,0.522537,1
1053,0.637315,0.58068,0.212966,0.642547,0.650353,0.501968,0.516963,0.864373,0.497585,0
1054,0.425807,0.488505,0.387565,0.456892,0.670327,0.675066,0.214239,0.465973,0.656,1
1055,0.505771,0.573129,0.324974,0.539834,0.53484,0.660076,0.833427,0.547648,0.41631,0
1056,0.584601,0.432383,0.289361,0.288607,0.576524,0.317827,0.396009,0.450849,0.595402,0
1057,0.545461,0.694631,0.292504,0.840276,0.632214,0.583151,0.246646,0.445113,0.356004,0
1058,0.555385,0.528289,0.252577,0.58937,0.554884,0.210314,0.428282,0.716474,0.351573,0
1059,0.544082,0.541093,0.439353,0.550353,0.614094,0.257988,0.243191,0.481955,0.178019,0
1060,0.476067,0.621483,0.265267,0.545832,0.485317,0.40364,0.574432,0.326928,0.577073,0
1061,0.505771,0.488697,0.497911,0.467566,0.471454,0.389321,0.479398,0.856985,0.454863,1
1062,0.629668,0.583619,0.434434,0.537923,0.568472,0.435288,0.189722,0.711292,0.269594,0
1063,0.554688,0.456138,0.220263,0.519147,0.655664,0.30517,0.356901,0.314878,0.333607,0
1064,0.444654,0.443644,0.479633,0.408839,0.581699,0.347343,0.589866,0.606684,0.24973,1
1065,0.505771,0.63944,0.255684,0.621307,0.496692,0.312988,0.499398,0.385014,0.511992,0
1066,0.611932,0.409101,0.383576,0.308018,0.657006,0.540393,0.261577,0.541434,0.256178,0
1067,0.499585,0.613849,0.37281,0.739282,0.719122,0.328725,0.642424,0.477954,0.557554,0
1068,0.238899,0.395543,0.903253,0.640165,0.68786,0.531857,0.566307,0.558846,0.212732,1
1069,0.505771,0.548521,0.324146,0.719216,0.612499,0.404812,0.289926,0.344015,0.589038,0
1070,0.505771,0.525304,0.352044,0.540715,0.575659,0.377329,0.615372,0.367052,0.547326,0
1071,0.555319,0.614167,0.361136,0.594562,0.727333,0.186383,0.457345,0.552675,0.461542,0
1072,0.505771,0.454491,0.46914,0.305199,0.327486,0.661257,0.733366,0.409994,0.285451,1
1073,0.514531,0.438944,0.369511,0.464286,0.405908,0.447465,0.54447,0.517336,0.933855,1
1074,0.439321,0.701712,0.098866,0.724689,0.830448,0.302363,0.38852,0.669311,0.397364,0
1075,0.505771,0.64756,0.153346,0.663456,0.763923,0.234791,0.55619,0.131936,0.474436,0
1076,0.483395,0.567006,0.342194,0.382055,0.346738,0.268286,0.422005,0.641925,0.34983,0
1077,0.574102,0.36629,0.789566,0.344726,0.395454,0.369702,0.393357,0.532673,0.199705,1
1078,0.584084,0.5913,0.300547,0.541657,0.581699,0.479915,0.461607,0.691149,0.35463,0
1079,0.481771,0.568215,0.326646,0.451918,0.498616,0.634519,0.376025,0.583068,0.64635,1
1080,0.543127,0.606658,0.182882,0.833503,0.766754,0.244091,0.375888,0.465372,0.403665,0
1081,0.610439,0.473043,0.378098,0.571434,0.635789,0.405411,0.389172,0.877088,0.388599,0
1082,0.388037,0.66712,0.240529,0.691092,0.798193,0.467565,0.330967,0.525792,0.45839,0
1083,0.551006,0.534315,0.443567,0.569813,0.548455,0.290885,0.32344,0.510984,0.327582,0
1084,0.582467,0.437687,0.345453,0.457679,0.581699,0.415644,0.387075,0.479867,0.19105,0
1085,0.505771,0.517923,0.373918,0.479842,0.481084,0.408152,0.431486,0.406916,0.288721,0
1086,0.56042,0.530857,0.220813,0.677508,0.609665,0.575005,0.443211,0.798605,0.419201,0
1087,0.511173,0.546122,0.438449,0.499611,0.655371,0.466852,0.395095,0.393973,0.285198,1
1088,0.406764,0.701073,0.126058,0.608397,0.581699,0.516848,0.508019,0.552949,0.457669,0
1089,0.47912,0.550808,0.280996,0.505514,0.581699,0.477825,0.474609,0.65422,0.448604,0
1090,0.341087,0.669467,0.224234,0.709988,0.739196,0.602568,0.575,0.593881,0.335239,0
1091,0.505771,0.554544,0.322241,0.549999,0.591515,0.199828,0.45341,0.234704,0.555343,0
1092,0.505771,0.572002,0.282681,0.600689,0.758718,0.239662,0.446761,0.754303,0.293005,0
1093,0.607265,0.531306,0.344271,0.52886,0.581699,0.370184,0.438438,0.489908,0.786972,1
1094,0.552946,0.619551,0.369482,0.653188,0.667535,0.593735,0.502323,0.592113,0.43319,0
1095,0.299106,0.583775,0.352817,0.430067,0.563798,0.145183,0.346174,0.372739,0.594245,0
1096,0.505771,0.343548,0.735897,0.444512,0.315877,0.328397,0.705194,0.563275,0.596469,1
1097,0.557715,0.48013,0.274467,0.471731,0.622308,0.714471,0.379023,0.655955,0.513434,0
1098,0.421139,0.506803,0.604163,0.332582,0.352692,0.611489,0.352881,0.621023,0.417783,1
1099,0.519261,0.390746,0.506359,0.221462,0.328935,0.567494,0.58182,0.587181,0.442283,1
1100,0.505771,0.600704,0.192356,0.739157,0.625432,0.1793,0.391567,0.599831,0.463021,0
1101,0.677829,0.436921,0.65201,0.626004,0.581699,0.303059,0.458556,0.826125,0.538986,1
1102,0.532713,0.49341,0.236634,0.557595,0.587074,0.526622,0.259129,0.663979,0.57624,0
1103,0.57088,0.662869,0.275107,0.723815,0.581699,0.597008,0.469317,0.550882,0.546946,0
1104,0.55331,0.597923,0.350533,0.634529,0.660117,0.481815,0.736793,0.344395,0.421381,0
1105,0.591128,0.420484,0.356171,0.421983,0.507533,0.297534,0.6842,0.63088,0.618518,1
1106,0.491426,0.421345,0.726787,0.187062,0.256083,0.651492,0.548733,0.541897,0.801325,1
1107,0.48567,0.695072,0.125858,0.78385,0.826295,0.335307,0.637111,0.346438,0.448097,0
1108,0.583412,0.35355,0.588851,0.32826,0.479959,0.741398,0.690501,0.532673,0.37071,1
1109,0.505771,0.606566,0.318055,0.437995,0.56011,0.357333,0.51201,0.625465,0.342532,0
1110,0.338315,0.565285,0.465926,0.385078,0.553031,0.572408,0.454526,0.522604,0.670373,1
1111,0.42528,0.6511,0.190616,0.729962,0.581699,0.296375,0.437151,0.566545,0.476205,0
1112,0.469928,0.54763,0.362335,0.545251,0.682035,0.396446,0.147878,0.849106,0.423696,0
1113,0.62682,0.398714,0.357803,0.593307,0.499411,0.523261,0.516967,0.666802,0.556616,1
1114,0.489307,0.437274,0.661139,0.236428,0.387555,0.207967,0.528935,0.581081,0.308243,1
1115,0.625508,0.500513,0.504381,0.641312,0.581699,0.396273,0.614376,0.580565,0.445981,1
1116,0.505771,0.600555,0.35081,0.512645,0.581699,0.353696,0.367557,0.459247,0.33892,0
1117,0.505771,0.474163,0.559264,0.475442,0.518497,0.680054,0.589737,0.553737,0.483247,1
1118,0.576663,0.523713,0.275596,0.590742,0.580852,0.439645,0.426643,0.433859,0.643659,0
1119,0.362734,0.499312,0.29233,0.293837,0.414895,0.60622,0.349634,0.645782,0.412373,1
1120,0.53178,0.564531,0.413227,0.612426,0.80834,0.391595,0.42464,0.597709,0.212023,0
1121,0.673858,0.402463,0.3309,0.430946,0.444266,0.516488,0.466987,0.587584,0.520146,1
1122,0.42185,0.637341,0.2158,0.686745,0.707632,0.273449,0.434163,0.341602,0.277422,0
1123,0.414535,0.528739,0.314103,0.297033,0.360698,0.321747,0.48738,0.063596,0.138346,0
1124,0.544082,0.490612,0.548765,0.459799,0.68333,0.254861,0.454621,0.665606,0.372952,1
1125,0.643462,0.367011,0.569742,0.410333,0.581699,0.360082,0.369927,0.395438,0.465308,1
1126,0.387318,0.572501,0.299181,0.402345,0.504792,0.35078,0.318162,0.541574,0.276376,0
1127,0.698442,0.393575,0.377871,0.572533,0.581699,0.306123,0.330444,0.605141,0.509239,0
1128,0.371781,0.672674,0.287285,0.543896,0.581699,0.389117,0.408675,0.44426,0.37617,0
1129,0.34804,0.643011,0.273198,0.526498,0.551193,0.302359,0.516942,0.642735,0.46663,0
1130,0.556708,0.426298,0.41352,0.588339,0.651248,0.379423,0.50182,0.532673,0.523734,1
1131,0.505771,0.767933,0.040835,0.76204,0.749461,0.302385,0.448236,0.512077,0.49751,0
1132,0.504156,0.509682,0.431614,0.642223,0.785169,0.491084,0.621777,0.328993,0.40912,0
1133,0.563597,0.481429,0.522764,0.580938,0.657,0.285152,0.346608,0.483151,0.332688,1
1134,0.538264,0.632447,0.238215,0.496999,0.674408,0.702888,0.595091,0.478234,0.521527,0
1135,0.514467,0.581795,0.189936,0.599902,0.581699,0.327984,0.313097,0.497312,0.804028,0
1136,0.505771,0.512088,0.449796,0.411311,0.415254,0.592985,0.40669,0.532673,0.557394,1
1137,0.62301,0.377919,0.459404,0.258314,0.338308,0.501669,0.496214,0.639292,0.344986,1
1138,0.596617,0.316725,0.547422,0.319984,0.581699,0.377071,0.468233,0.444977,0.470602,1
1139,0.448885,0.635698,0.298907,0.675403,0.756359,0.586975,0.523717,0.443335,0.677011,0
1140,0.505771,0.537275,0.46127,0.55873,0.538349,0.547199,0.49134,0.376484,0.492034,1
1141,0.66469,0.422551,0.643246,0.513713,0.55925,0.287087,0.402766,0.500828,0.573846,1
1142,0.351656,0.583893,0.257268,0.414571,0.626807,0.38982,0.35262,0.679753,0.355379,0
1143,0.438787,0.362869,0.567173,0.260858,0.444436,0.514046,0.717983,0.433715,0.741237,1
1144,0.410322,0.582672,0.314199,0.496434,0.581699,0.315775,0.513553,0.661841,0.393931,0
1145,0.472618,0.55986,0.274885,0.626331,0.657932,0.542512,0.312414,0.480855,0.459778,0
1146,0.544536,0.446134,0.590191,0.445302,0.489216,0.389987,0.39447,0.6426,0.626772,1
1147,0.561436,0.488262,0.56268,0.456819,0.44946,0.181417,0.466116,0.601568,0.387554,1
1148,0.528079,0.575132,0.211715,0.578347,0.581699,0.621923,0.530774,0.637825,0.563762,0
1149,0.505771,0.469176,0.401806,0.472982,0.520861,0.342012,0.30154,0.40066,0.603335,1
1150,0.398537,0.639062,0.212922,0.575083,0.681466,0.338881,0.690591,0.842457,0.490436,0
1151,0.307398,0.651361,0.114969,0.558787,0.561585,0.404667,0.41022,0.551759,0.105982,0
1152,0.522194,0.501956,0.355773,0.632917,0.581699,0.426765,0.488422,0.722333,0.402501,0
1153,0.458407,0.500124,0.54246,0.408755,0.69799,0.574155,0.599578,0.832242,0.490888,1
1154,0.505771,0.485578,0.382453,0.399452,0.435507,0.576123,0.451288,0.418325,0.462103,1
1155,0.769594,0.419537,0.619253,0.56753,0.627787,0.518029,0.433966,0.532673,0.336516,1
1156,0.359747,0.517725,0.47512,0.363136,0.487105,0.263834,0.339303,0.936409,0.394151,1
1157,0.505771,0.57103,0.398468,0.581007,0.581699,0.453701,0.397205,0.954222,0.542309,1
1158,0.743932,0.435234,0.561759,0.469888,0.611621,0.542149,0.657312,0.359933,0.521675,1
1159,0.601329,0.5239,0.476024,0.411261,0.503721,0.638807,0.418926,0.773857,0.376791,1
1160,0.55776,0.555993,0.252414,0.537578,0.581699,0.591718,0.423835,0.637722,0.193367,0
1161,0.539855,0.395477,0.533812,0.231672,0.36439,0.167437,0.599893,0.501494,0.348321,1
1162,0.803179,0.44242,0.709496,0.433382,0.602304,0.270981,0.532173,0.476676,0.279817,1
1163,0.409202,0.543214,0.207067,0.417416,0.431588,0.460928,0.45887,0.546696,0.560063,0
1164,0.749058,0.499311,0.429054,0.719904,0.748078,0.479594,0.527817,0.37856,0.445141,0
1165,0.270866,0.620471,0.272687,0.450747,0.581699,0.400816,0.455583,0.483377,0.599487,0
1166,0.408304,0.496196,0.313146,0.387254,0.458132,0.562219,0.668349,0.547601,0.374955,0
1167,0.505771,0.489261,0.494354,0.45395,0.629061,0.521935,0.550826,0.470032,0.583498,1
1168,0.390972,0.620552,0.234581,0.412474,0.581699,0.509414,0.32121,0.587107,0.66323,0
1169,0.505771,0.474449,0.616365,0.278725,0.581699,0.618339,0.587948,0.51381,0.692734,1
1170,0.483638,0.48745,0.436068,0.380733,0.44242,0.514227,0.477603,0.484965,0.654289,1
1171,0.431669,0.512276,0.402843,0.314601,0.474093,0.303438,0.207656,0.64259,0.623038,1
1172,0.505771,0.598668,0.381754,0.362019,0.487818,0.469464,0.187371,0.529675,0.310799,1
1173,0.451459,0.590797,0.186537,0.51792,0.51921,0.340085,0.374461,0.504798,0.586761,0
1174,0.656101,0.428774,0.291481,0.607148,0.581699,0.617661,0.229489,0.478051,0.517428,0
1175,0.620341,0.412388,0.664602,0.393737,0.501473,0.555717,0.52742,0.609891,0.458943,1
1176,0.568694,0.641603,0.184386,0.715466,0.677401,0.472712,0.487019,0.640498,0.158242,0
1177,0.391725,0.541761,0.312898,0.364128,0.473229,0.291882,0.632716,0.613946,0.565108,0
1178,0.513352,0.471739,0.561351,0.362617,0.473919,0.518504,0.558526,0.503147,0.534249,1
1179,0.390772,0.601136,0.295116,0.44551,0.581699,0.238634,0.444033,0.396752,0.286038,0
1180,0.505771,0.535335,0.280127,0.523274,0.568495,0.353778,0.3428,0.73136,0.452525,0
1181,0.699481,0.412148,0.491382,0.380612,0.366556,0.40512,0.394383,0.612416,0.430917,1
1182,0.259798,0.694658,0.1606,0.56205,0.592376,0.572985,0.445151,0.396836,0.755637,0
1183,0.504628,0.511294,0.332416,0.555088,0.65711,0.831395,0.539266,0.682199,0.558069,1
1184,0.473717,0.559457,0.391426,0.595892,0.683525,0.289191,0.568337,0.490561,0.366098,0
1185,0.422425,0.609615,0.209596,0.58182,0.584285,0.178222,0.478298,0.442865,0.793837,0
1186,0.677479,0.273766,0.919946,0.302756,0.257232,0.523493,0.434231,0.33257,0.507142,1
1187,0.603386,0.422638,0.316258,0.476022,0.584199,0.639214,0.61451,0.364511,0.71248,1
1188,0.551959,0.654392,0.302875,0.733065,0.581699,0.257704,0.231165,0.53496,0.595916,0
1189,0.489952,0.477478,0.44735,0.433155,0.279375,0.367426,0.477799,0.671188,0.577043,1
1190,0.417628,0.597515,0.313545,0.633271,0.581699,0.371541,0.58858,0.394691,0.363228,0
1191,0.45,0.453108,0.662677,0.304566,0.493173,0.53193,0.633637,0.519792,0.427196,1
1192,0.474748,0.741422,0.08531,0.844705,0.581699,0.275811,0.372814,0.614839,0.555417,0
1193,0.522389,0.403622,0.37489,0.296777,0.41914,0.445973,0.332953,0.70723,0.145706,0
1194,0.469475,0.52673,0.234426,0.455,0.52592,0.284006,0.580222,0.424685,0.259203,0
1195,0.428744,0.538902,0.259669,0.417672,0.49138,0.271799,0.375032,0.350267,0.541749,0
1196,0.505771,0.600225,0.226265,0.685752,0.737969,0.272283,0.245304,0.599079,0.411162,0
1197,0.424004,0.636545,0.29128,0.753873,0.831524,0.24834,0.463545,0.414815,0.470842,0
1198,0.542221,0.537679,0.281149,0.387872,0.581699,0.587067,0.482741,0.689895,0.582567,0
1199,0.491125,0.524468,0.412132,0.565116,0.581699,0.559792,0.328964,0.548073,0.36818,1
1200,0.572591,0.593406,0.225158,0.739335,0.739534,0.541384,0.471762,0.282552,0.540409,0
1201,0.6274,0.553147,0.314426,0.552908,0.541819,0.250854,0.540678,0.598989,0.382092,0
1202,0.493693,0.478003,0.415248,0.537981,0.539691,0.204713,0.370073,0.759376,0.598722,1
1203,0.622803,0.48453,0.280923,0.553363,0.581699,0.188366,0.468476,0.44341,0.465652,0
1204,0.426756,0.542891,0.364861,0.415707,0.594714,0.401009,0.343643,0.479373,0.429566,0
1205,0.316384,0.757296,0.138343,0.677756,0.581699,0.438262,0.540516,0.532673,0.533403,0
1206,0.505771,0.316466,0.490769,0.347582,0.299081,0.367813,0.643646,0.532673,0.452049,1
1207,0.505771,0.632022,0.16084,0.60075,0.645431,0.571433,0.454347,0.325963,0.329009,0
1208,0.586795,0.392942,0.496803,0.231466,0.581699,0.285852,0.440078,0.62018,0.578821,1
1209,0.559196,0.468985,0.542082,0.398182,0.448804,0.189968,0.140687,0.608269,0.708914,1
1210,0.567855,0.505481,0.243818,0.585618,0.581699,0.393679,0.70267,0.708402,0.353026,0
1211,0.436738,0.47522,0.497244,0.408301,0.374317,0.508468,0.555995,0.371685,0.421707,1
1212,0.505771,0.648691,0.247252,0.493892,0.581699,0.369102,0.455292,0.401976,0.579858,0
1213,0.509959,0.478081,0.320852,0.607433,0.593548,0.320078,0.58178,0.710875,0.438948,0
1214,0.505771,0.638684,0.325311,0.596926,0.653993,0.517363,0.334631,0.39272,0.541595,0
1215,0.56918,0.395438,0.438166,0.34165,0.581699,0.479763,0.236026,0.419944,0.325937,1
1216,0.473992,0.531817,0.32867,0.444686,0.50835,0.404119,0.5247,0.461663,0.581062,0
1217,0.456753,0.528182,0.513892,0.525486,0.581699,0.584624,0.41693,0.802378,0.301096,1
1218,0.448641,0.571983,0.42117,0.631381,0.723435,0.480993,0.450372,0.260105,0.595468,1
1219,0.570859,0.461116,0.562572,0.488086,0.581699,0.633837,0.383121,0.572222,0.60448,1
1220,0.362057,0.595801,0.36877,0.389677,0.53434,0.528029,0.471103,0.620421,0.550593,1
1221,0.505771,0.426117,0.532741,0.466355,0.444737,0.604546,0.522732,0.478575,0.387493,1
1222,0.582232,0.57461,0.251879,0.52113,0.586945,0.654194,0.485101,0.584321,0.255225,0
1223,0.541639,0.499158,0.373555,0.433681,0.478668,0.588545,0.376952,0.645573,0.513146,1
1224,0.381723,0.547521,0.216265,0.485892,0.567135,0.71675,0.455341,0.492082,0.501928,0
1225,0.562283,0.624576,0.20424,0.604666,0.656439,0.296128,0.517193,0.67677,0.28144,0
1226,0.380502,0.673609,0.217706,0.54876,0.646024,0.449534,0.300758,0.442101,0.643944,0
1227,0.753591,0.499593,0.522607,0.671778,0.581699,0.673061,0.462949,0.686792,0.472926,1
1228,0.505771,0.503253,0.291665,0.360022,0.481207,0.291161,0.517837,0.607264,0.306092,0
1229,0.533645,0.470821,0.253104,0.510869,0.42073,0.384945,0.348111,0.466471,0.426919,0
1230,0.56742,0.596262,0.521297,0.580604,0.458305,0.300516,0.600458,0.630809,0.50325,1
1231,0.192202,0.378505,0.490649,0.446268,0.49627,0.342243,0.456745,0.363981,0.605036,1
1232,0.65255,0.534595,0.150657,0.456667,0.615612,0.666751,0.43971,0.597801,0.346342,0
1233,0.372429,0.526736,0.555992,0.425155,0.437376,0.347891,0.523669,0.647081,0.567882,1
1234,0.617824,0.464267,0.157243,0.445902,0.589374,0.400696,0.301504,0.532673,0.714655,0
1235,0.554048,0.505109,0.363172,0.556604,0.6079,0.243849,0.665616,0.532673,0.263277,0
1236,0.50745,0.472048,0.203108,0.533775,0.581699,0.46436,0.466543,0.486815,0.759096,0
1237,0.383097,0.480534,0.438789,0.482885,0.518328,0.397718,0.287537,0.638857,0.457813,1
1238,0.470179,0.556059,0.384189,0.642961,0.636331,0.484174,0.413865,0.639218,0.510874,0
1239,0.486462,0.588713,0.530018,0.553486,0.602715,0.277247,0.556964,0.337585,0.558204,1
1240,0.505771,0.522683,0.206294,0.518822,0.566997,0.726171,0.430939,0.405787,0.174499,0
1241,0.398151,0.528583,0.282819,0.694166,0.673798,0.624365,0.450243,0.538723,0.700043,0
1242,0.611092,0.613813,0.295807,0.621424,0.517926,0.366278,0.572369,0.316718,0.422982,0
1243,0.320243,0.45323,0.21018,0.385498,0.460753,0.405802,0.370564,0.606566,0.14253,0
1244,0.270217,0.400522,0.329422,0.337775,0.485891,0.438829,0.402353,0.532673,0.558186,1
1245,0.509884,0.498068,0.365385,0.513167,0.581699,0.565493,0.624665,0.530569,0.509524,1
1246,0.505771,0.450359,0.237477,0.552061,0.633114,0.323831,0.318173,0.463437,0.332798,0
1247,0.565169,0.594665,0.566239,0.670166,0.581699,0.722933,0.554866,0.578524,0.270092,1
1248,0.505771,0.528433,0.280235,0.575353,0.71886,0.502669,0.537664,0.54466,0.523302,0
1249,0.652026,0.497839,0.165782,0.508665,0.735927,0.332247,0.315881,0.547176,0.437176,0
1250,0.376569,0.528624,0.356031,0.456513,0.394357,0.29727,0.515877,0.55068,0.504715,1
1251,0.461792,0.703089,0.716474,0.55328,0.502855,0.634976,0.711455,0.721297,0.442527,1
1252,0.588942,0.550882,0.223106,0.705882,0.786999,0.423624,0.48281,0.783202,0.505905,0
1253,0.505771,0.540458,0.292383,0.599302,0.552657,0.230613,0.62838,0.545394,0.38799,0
1254,0.478914,0.469597,0.456765,0.51586,0.581699,0.479994,0.530114,0.319142,0.445566,1
1255,0.459304,0.580892,0.435656,0.527273,0.497608,0.414326,0.602343,0.276471,0.634485,1
1256,0.534485,0.502958,0.316887,0.612123,0.682301,0.513637,0.380355,0.847202,0.500047,0
1257,0.393175,0.424637,0.190938,0.504811,0.491976,0.622629,0.467198,0.561421,0.606421,0
1258,0.53728,0.547432,0.325393,0.534298,0.581699,0.737194,0.443433,0.682114,0.314035,0
1259,0.505771,0.423163,0.148157,0.438928,0.625001,0.325091,0.449731,0.714202,0.587887,0
1260,0.608755,0.5829,0.264757,0.499239,0.691712,0.288342,0.375562,0.649191,0.360802,0
1261,0.406748,0.529577,0.302465,0.485688,0.562458,0.467371,0.437675,0.450978,0.502452,0
1262,0.495322,0.469863,0.246321,0.416037,0.68273,0.444978,0.751462,0.84381,0.458544,0
1263,0.436799,0.648015,0.400264,0.497497,0.481007,0.434063,0.472647,0.570391,0.423683,1
1264,0.612548,0.544551,0.255601,0.353304,0.518584,0.4953,0.633599,0.320346,0.388775,0
1265,0.406367,0.486603,0.283523,0.539058,0.630008,0.286876,0.529896,0.532673,0.594248,0
1266,0.505771,0.550008,0.650291,0.399378,0.369314,0.133738,0.461484,0.420879,0.493359,1
1267,0.516152,0.601717,0.37449,0.45727,0.498714,0.774223,0.56637,0.592199,0.511166,1
1268,0.514128,0.439654,0.204286,0.512375,0.581699,0.672835,0.392244,0.527403,0.45264,0
1269,0.274772,0.520729,0.436315,0.413114,0.581699,0.837219,0.610161,0.628057,0.403517,1
1270,0.421167,0.476061,0.280745,0.386705,0.581699,0.51097,0.545506,0.638747,0.677416,0
1271,0.505771,0.725524,0.714624,0.588163,0.554622,0.266993,0.554067,0.434023,0.401275,1
1272,0.594739,0.603728,0.577228,0.627173,0.618659,0.677824,0.584922,0.503439,0.55687,1
1273,0.492254,0.548121,0.425565,0.37588,0.581699,0.446689,0.246526,0.698287,0.399312,1
1274,0.396295,0.615129,0.553077,0.492793,0.574958,0.435048,0.515212,0.521188,0.595431,1
1275,0.505771,0.464853,0.275362,0.546882,0.551526,0.542519,0.364213,0.418827,0.541891,0
1276,0.38476,0.578417,0.329945,0.544873,0.645922,0.600917,0.30721,0.562177,0.542806,0
1277,0.518752,0.598818,0.630349,0.429417,0.378078,0.263949,0.455892,0.564349,0.642155,1
1278,0.446935,0.482329,0.221739,0.526272,0.618206,0.421637,0.369276,0.625499,0.481133,0
1279,0.501822,0.572989,0.354046,0.542001,0.499196,0.45627,0.522749,0.526053,0.282011,0
1280,0.470346,0.539377,0.267444,0.494871,0.552146,0.21549,0.394696,0.689135,0.466998,0
1281,0.468974,0.407329,0.307419,0.496377,0.438924,0.370968,0.6133,0.538009,0.249754,0
1282,0.473007,0.542123,0.257602,0.540436,0.581699,0.144791,0.467853,0.36273,0.726209,0
1283,0.515528,0.48156,0.217689,0.441575,0.536781,0.420523,0.389668,0.508744,0.434226,0
1284,0.375279,0.524317,0.566,0.42782,0.581699,0.37462,0.397345,0.439963,0.385398,1
1285,0.580813,0.470319,0.212082,0.495244,0.581699,0.470806,0.705118,0.68446,0.395691,0
1286,0.472841,0.374644,0.181715,0.505329,0.68674,0.437077,0.211141,0.591393,0.498567,0
1287,0.505771,0.576318,0.302618,0.614517,0.612417,0.575324,0.121164,0.496287,0.348564,0
1288,0.44409,0.573888,0.535101,0.437892,0.481181,0.407946,0.380397,0.636912,0.119385,1
1289,0.35857,0.397323,0.311163,0.456572,0.575404,0.279568,0.536267,0.604928,0.499052,0
1290,0.493384,0.590685,0.656243,0.510583,0.468752,0.278427,0.615076,0.675667,0.008716,1
1291,0.450937,0.416785,0.337047,0.52716,0.581699,0.361058,0.492245,0.674849,0.506138,0
1292,0.505771,0.478389,0.07806,0.656421,0.927338,0.368745,0.560894,0.612562,0.557295,0
1293,0.520995,0.483914,0.254529,0.576906,0.581699,0.482701,0.25508,0.300148,0.558376,0
1294,0.473597,0.50538,0.502708,0.575458,0.581699,0.26124,0.445048,0.697823,0.385817,1
1295,0.572556,0.481074,0.193983,0.462417,0.514355,0.848473,0.592343,0.534235,0.327204,0
1296,0.303564,0.439404,0.258639,0.392086,0.375728,0.467891,0.350544,0.699396,0.504131,0
1297,0.304662,0.551585,0.415616,0.435451,0.372869,0.208206,0.383093,0.447862,0.652382,1
1298,0.661917,0.565198,0.330965,0.507771,0.591709,0.571469,0.649982,0.532673,0.544536,0
1299,0.687104,0.59062,0.293305,0.593964,0.581699,0.35996,0.58537,0.529372,0.325808,0
1300,0.506206,0.525787,0.413814,0.548105,0.55035,0.642526,0.4722,0.514241,0.480781,1
1301,0.245277,0.381034,0.262663,0.440008,0.522864,0.404701,0.297707,0.549801,0.501974,0
1302,0.602626,0.707516,0.73188,0.587952,0.581699,0.689774,0.472482,0.405934,0.198508,1
1303,0.874781,0.616398,0.180559,0.635081,0.701345,0.290577,0.289751,0.593,0.393882,0
1304,0.524502,0.548071,0.2252,0.425546,0.581699,0.520684,0.340627,0.489707,0.725668,0
1305,0.329746,0.526464,0.24072,0.448378,0.581699,0.284445,0.340613,0.711862,0.223925,0
1306,0.59339,0.662004,0.297699,0.512184,0.595072,0.495607,0.280157,0.675921,0.60044,0
1307,0.350689,0.398301,0.166942,0.514896,0.581699,0.227787,0.338077,0.387691,0.736495,0
1308,0.55065,0.476542,0.300284,0.577882,0.581699,0.490886,0.447843,0.52006,0.526585,0
1309,0.505771,0.458427,0.430695,0.464836,0.466352,0.323917,0.424195,0.579188,0.332198,1
1310,0.558448,0.47802,0.447205,0.559879,0.529634,0.310593,0.399183,0.418941,0.355312,1
1311,0.586247,0.516918,0.281204,0.501736,0.581699,0.468523,0.503284,0.439781,0.510846,0
1312,0.497038,0.508962,0.21568,0.548853,0.573105,0.295737,0.556289,0.624144,0.518926,0
1313,0.505771,0.531369,0.239968,0.536313,0.51259,0.465091,0.382399,0.532673,0.53846,0
1314,0.310674,0.399291,0.394559,0.439587,0.448953,0.439197,0.324416,0.353321,0.565837,1
1315,0.47357,0.537804,0.347659,0.48489,0.66668,0.269858,0.352303,0.530798,0.205048,0
1316,0.640693,0.537965,0.143314,0.556952,0.759745,0.344569,0.59608,0.920565,0.478937,0
1317,0.483646,0.53394,0.252824,0.500536,0.596543,0.455089,0.792759,0.606309,0.339358,0
1318,0.480331,0.637463,0.67696,0.578685,0.40382,0.493831,0.420116,0.489371,0.278203,1
1319,0.505771,0.630994,0.454121,0.486919,0.62672,0.304792,0.298328,0.658966,0.376181,1
1320,0.497662,0.621566,0.551877,0.675161,0.659025,0.449981,0.629619,0.577479,0.344578,1
1321,0.505771,0.647607,0.530261,0.550189,0.369869,0.304963,0.341864,0.532375,0.337091,1
1322,0.503794,0.701579,0.3149,0.602675,0.723425,0.342225,0.412091,0.444453,0.79826,0
1323,0.55394,0.541731,0.307091,0.513493,0.749367,0.27445,0.328462,0.615596,0.241785,0
1324,0.612858,0.46093,0.101346,0.523579,0.796467,0.388405,0.533436,0.417231,0.330042,0
1325,0.492979,0.456023,0.164236,0.554584,0.703949,0.62452,0.314252,0.292174,0.299805,0
1326,0.558161,0.565673,0.396499,0.569817,0.548175,0.586094,0.576357,0.648326,0.501921,1
1327,0.422782,0.389353,0.154198,0.389375,0.581699,0.358015,0.550931,0.528503,0.53234,0
1328,0.501521,0.645352,0.374164,0.434855,0.544089,0.486862,0.439467,0.621456,0.42079,1
1329,0.505771,0.516456,0.321261,0.607731,0.815065,0.639219,0.412219,0.569514,0.651116,0
1330,0.58091,0.578016,0.418958,0.652277,0.618162,0.508505,0.361418,0.532673,0.287282,0
1331,0.432648,0.496718,0.237846,0.422811,0.726704,0.490545,0.48096,0.272005,0.55242,0
1332,0.381648,0.595701,0.736311,0.493135,0.428279,0.532432,0.669821,0.566345,0.527516,1
1333,0.505771,0.381134,0.181883,0.655732,0.771721,0.356473,0.363088,0.46943,0.755328,0
1334,0.410181,0.491523,0.344348,0.506803,0.50434,0.44373,0.342685,0.550651,0.533599,0
1335,0.470344,0.489472,0.400651,0.460816,0.581699,0.407211,0.589372,0.628545,0.558543,1
1336,0.576463,0.549287,0.294644,0.512749,0.760217,0.341389,0.334271,0.702906,0.303609,0
1337,0.475202,0.509679,0.309242,0.43817,0.614601,0.441353,0.702038,0.206088,0.418138,0
1338,0.39329,0.424619,0.34845,0.440861,0.581699,0.476341,0.426809,0.446312,0.251258,0
1339,0.505771,0.607709,0.587644,0.527755,0.581699,0.406775,0.52393,0.575147,0.185764,1
1340,0.460126,0.461928,0.180364,0.495793,0.581699,0.634545,0.571258,0.717042,0.422033,0
1341,0.505771,0.533252,0.67547,0.516608,0.315063,0.316541,0.456331,0.470652,0.651322,1
1342,0.589193,0.558257,0.403767,0.589093,0.738824,0.409541,0.407741,0.414736,0.39526,0
1343,0.183517,0.559216,0.786179,0.471913,0.377013,0.434133,0.328894,0.640762,0.767051,1
1344,0.404632,0.504971,0.301414,0.37588,0.522919,0.269335,0.588183,0.477307,0.400887,0
1345,0.642821,0.679757,0.338431,0.597139,0.670569,0.459192,0.381945,0.435387,0.424482,0
1346,0.399181,0.449419,0.28587,0.409911,0.60802,0.498308,0.445508,0.475722,0.552845,0
1347,0.447546,0.405736,0.301941,0.507551,0.526156,0.556293,0.492786,0.546553,0.34336,0
1348,0.494432,0.558515,0.265899,0.634912,0.650328,0.270281,0.71759,0.485007,0.528067,0
1349,0.576615,0.590651,0.271276,0.66078,0.654818,0.660449,0.577149,0.551678,0.686747,0
1350,0.630578,0.540933,0.285335,0.67228,0.712763,0.534012,0.586869,0.490377,0.443055,0
1351,0.617675,0.493904,0.208106,0.457413,0.719704,0.539082,0.608313,0.751826,0.411061,0
1352,0.533967,0.609365,0.50961,0.559412,0.592171,0.517175,0.382617,0.431364,0.485077,1
1353,0.82392,0.492688,0.062241,0.553015,0.766852,0.513714,0.331027,0.557204,0.293079,0
1354,0.460933,0.477222,0.374486,0.469864,0.562034,0.332948,0.420625,0.330904,0.376415,0
1355,0.585158,0.452899,0.216851,0.548155,0.705779,0.47832,0.193209,0.532673,0.385571,0
1356,0.517693,0.590655,0.512936,0.68328,0.581699,0.659328,0.429701,0.591352,0.353555,1
1357,0.563795,0.558599,0.331741,0.413055,0.482964,0.21403,0.500178,0.574421,0.350201,0
1358,0.440318,0.564342,0.310489,0.641822,0.581699,0.331697,0.231198,0.615918,0.377463,0
1359,0.566957,0.446198,0.103527,0.373023,0.692057,0.235266,0.802144,0.592626,0.533343,0
1360,0.591509,0.653709,0.290191,0.559004,0.552168,0.486802,0.466041,0.126182,0.423141,0
1361,0.350464,0.458291,0.237499,0.429883,0.393605,0.767433,0.213636,0.308743,0.321865,0
1362,0.581677,0.489679,0.169977,0.489694,0.581699,0.430284,0.441354,0.62494,0.212295,0
1363,0.365565,0.479773,0.425153,0.403202,0.495007,0.328988,0.481298,0.666009,0.445585,1
1364,0.460648,0.420816,0.27231,0.375752,0.438079,0.377756,0.558899,0.659393,0.355748,0
1365,0.400969,0.569974,0.267542,0.412286,0.531487,0.279859,0.497086,0.589899,0.380996,0
1366,0.411015,0.704302,0.518015,0.54382,0.211472,0.549894,0.787882,0.573502,0.845195,1
1367,0.493327,0.552088,0.244316,0.374528,0.581699,0.217781,0.498575,0.728862,0.346521,0
1368,0.452591,0.656613,0.476499,0.517532,0.581699,0.378936,0.511304,0.740482,0.434057,1
1369,0.58009,0.554683,0.411974,0.484982,0.52578,0.403077,0.391546,0.47886,0.563114,1
1370,0.505771,0.532241,0.179865,0.54126,0.76778,0.430899,0.498589,0.273675,0.27597,0
1371,0.638223,0.62012,0.385072,0.474587,0.556329,0.404857,0.431057,0.509819,0.703025,1
1372,0.460913,0.518294,0.356515,0.513714,0.581699,0.301497,0.381535,0.539294,0.373429,0
1373,0.604201,0.646665,0.252142,0.474211,0.526464,0.795256,0.322364,0.577837,0.389054,0
1374,0.495006,0.591217,0.36911,0.437832,0.581699,0.511161,0.44828,0.513578,0.510383,1
1375,0.446791,0.458512,0.412689,0.460363,0.581699,0.525542,0.461115,0.567623,0.51885,1
1376,0.404987,0.565924,0.442051,0.489468,0.581699,0.314334,0.340807,0.553172,0.784734,1
1377,0.567529,0.596202,0.256416,0.491934,0.729064,0.368417,0.284254,0.320422,0.7523,0
1378,0.535703,0.593245,0.383976,0.532017,0.581699,0.53048,0.608504,0.423727,0.568061,1
1379,0.335394,0.549448,0.401375,0.589256,0.637685,0.57944,0.680364,0.35378,0.603467,1
1380,0.479331,0.566614,0.384644,0.498995,0.606315,0.479985,0.524121,0.510611,0.456284,1
1381,0.678775,0.464844,0.068061,0.474713,0.687019,0.39315,0.44269,0.459998,0.527008,0
1382,0.314666,0.443649,0.241663,0.466239,0.636075,0.424523,0.469033,0.6363,0.498557,0
1383,0.486453,0.432223,0.304257,0.586748,0.581699,0.197427,0.430932,0.433059,0.504008,0
1384,0.498795,0.484916,0.282112,0.515039,0.581699,0,0.36009,0.578409,0.562863,0
1385,0.497724,0.5751,0.310089,0.542779,0.438821,0.485597,0.602183,0.406782,0.298889,0
1386,0.411611,0.498438,0.358552,0.465774,0.621466,0.468563,0.411898,0.528157,0.2754,0
1387,0.599803,0.551571,0.270108,0.607845,0.609049,0.386426,0.576094,0.609397,0.262014,0
1388,0.630595,0.517039,0.216842,0.531817,0.794224,0.274593,0.626188,0.532673,0.303048,0
1389,0.671132,0.416137,0.146205,0.620198,0.581699,0.472216,0.399721,0.645064,0.393363,0
1390,0.54237,0.557277,0.310202,0.575978,0.631724,0.471668,0.083215,0.599828,0.395555,0
1391,0.367795,0.547352,0.270487,0.49754,0.562316,0.213077,0.395053,0.532511,0.640797,0
1392,0.351196,0.522449,0.379343,0.509243,0.581699,0.235965,0.616159,0.346378,0.409002,0
1393,0.505771,0.563872,0.397293,0.53741,0.656631,0.54361,0.557214,0.583895,0.515139,1
1394,0.526521,0.483527,0.416236,0.549935,0.515772,0.203843,0.401211,0.217596,0.498146,1
1395,0.591339,0.553989,0.477143,0.539951,0.581699,0.480865,0.496576,0.564643,0.627287,1
1396,0.728784,0.596794,0.351163,0.558896,0.581699,0.373618,0.740253,0.502356,0.344281,0
1397,0.325868,0.514449,0.385984,0.584198,0.557245,0.384829,0.437707,0.532673,0.637717,1
1398,0.505771,0.57499,0.483085,0.560994,0.581699,0.435006,0.709597,0.662481,0.462077,1
1399,0.371619,0.53646,0.373205,0.517226,0.331587,0.510729,0.362421,0.395778,0.468516,1
1400,0.653552,0.664255,0.494985,0.572654,0.592443,0.626276,0.533851,0.465647,0.753795,1
1401,0.543968,0.571065,0.132701,0.443078,0.82183,0.226796,0.403921,0.539861,0.528102,0
1402,0.558076,0.494267,0.155833,0.567956,0.77088,0.626251,0.388815,0.727331,0.617077,0
1403,0.551502,0.565569,0.582531,0.573886,0.522452,0.425775,0.608912,0.776428,0.513989,1
1404,0.646875,0.544935,0.280473,0.574318,0.592165,0.407938,0.503826,0.510772,0.353442,0
1405,0.577333,0.603293,0.350846,0.659083,0.556867,0.571177,0.568514,0.532673,0.71793,1
1406,0.417762,0.591273,0.538113,0.449619,0.520909,0.526298,0.368327,0.49648,0.647482,1
1407,0.605039,0.551549,0.4308,0.591184,0.632726,0.542155,0.27988,0.530645,0.280923,0
1408,0.659184,0.484282,0.164588,0.446574,0.581699,0.376945,0.613619,0.431915,0.451727,0
1409,0.583613,0.583431,0.205002,0.402134,0.550872,0.50807,0.428718,0.225766,0.481349,0
1410,0.455856,0.596627,0.334749,0.455512,0.425955,0.600833,0.554945,0.598658,0.669672,1
1411,0.499272,0.629573,0.335739,0.626929,0.507124,0.253738,0.386446,0.503242,0.635013,0
1412,0.741293,0.553415,0.136667,0.74141,0.89129,0.511193,0.458094,0.514566,0.40224,0
1413,0.505771,0.488475,0.2808,0.505966,0.581699,0.549138,0.358558,0.690611,0.400491,0
1414,0.256487,0.603102,0.543634,0.406291,0.50956,0.496882,0.610227,0.40031,0.509507,1
1415,0.527751,0.557237,0.223297,0.580391,0.581699,0.66326,0.470004,0.597394,0.559473,0
1416,0.497631,0.401212,0.195969,0.528659,0.68891,0.351416,0.467743,0.627628,0.285014,0
1417,0.47882,0.48858,0.393981,0.521159,0.603169,0.521202,0.685389,0.431496,0.524463,1
1418,0.509977,0.49329,0.272476,0.484338,0.581699,0.318757,0.304385,0.33731,0.321684,0
1419,0.474914,0.604036,0.263806,0.571781,0.649739,0.334354,0.504962,0.252775,0.697305,0
1420,0.505771,0.488326,0.288123,0.742146,0.660561,0.311206,0.690013,0.392811,0.514289,0
1421,0.567194,0.5427,0.171444,0.560768,0.726616,0.392812,0.537826,0.599322,0.291199,0
1422,0.587755,0.488824,0.292436,0.497848,0.587394,0.679278,0.494994,0.508037,0.251833,0
1423,0.618978,0.41687,0.057161,0.464153,0.581699,0.27365,0.65405,0.67705,0.386469,0
1424,0.361717,0.606101,0.340099,0.6875,0.581699,0.506584,0.426572,0.466131,0.694404,0
1425,0.56388,0.467505,0.18679,0.614177,0.703871,0.352421,0.401436,0.458716,0.267542,0
1426,0.503057,0.531806,0.269466,0.575337,0.628479,0.565597,0.670629,0.661319,0.475638,0
1427,0.593219,0.470606,0.13349,0.427015,0.587653,0.315126,0.465876,0.407171,0.569335,0
1428,0.590593,0.439824,0.211156,0.472112,0.480944,0.197276,0.389518,0.636599,0.558784,0
1429,0.505771,0.551842,0.410207,0.438731,0.568511,0.185557,0.443913,0.268076,0.507292,1
1430,0.528397,0.618461,0.397023,0.435781,0.581699,0.427587,0.385561,0.395617,0.190837,0
1431,0.454807,0.494601,0.185511,0.444871,0.610254,0.317022,0.553398,0.58835,0.220224,0
1432,0.600759,0.499658,0.487049,0.612603,0.581699,0.53933,0.593784,0.596227,0.548742,1
1433,0.507018,0.580733,0.366966,0.46439,0.473214,0.202188,0.571085,0.570191,0.654107,1
1434,0.523036,0.53927,0.31546,0.493868,0.479621,0.413724,0.573248,0.557588,0.289591,0
1435,0.371302,0.455899,0.178265,0.433774,0.608498,0.364744,0.458272,0.524858,0.445702,0
1436,0.505771,0.602276,0.333391,0.633273,0.538984,0.273514,0.210318,0.618724,0.33779,0
1437,0.505771,0.61053,0.598546,0.494486,0.469025,0.539298,0.344075,0.532673,0.624752,1
1438,0.448636,0.476166,0.273027,0.588191,0.685527,0.362098,0.33607,0.599293,0.297086,0
1439,0.487424,0.358003,0.215855,0.475243,0.456143,0.40457,0.463896,0.655446,0.485185,0
1440,0.473571,0.586615,0.331115,0.542224,0.579147,0.600497,0.710795,0.482702,0.322408,0
1441,0.735827,0.551983,0.179914,0.556782,0.864834,0.490498,0.570847,0.506667,0.455257,0
1442,0.437371,0.485616,0.243229,0.42834,0.468257,0.367445,0.359839,0.496574,0.757767,0
1443,0.505771,0.539397,0.167789,0.478079,0.653831,0.383304,0.436152,0.366396,0.510396,0
1444,0.489145,0.429404,0.094367,0.452456,0.693709,0.456935,0.341692,0.513456,0.530731,0
1445,0.505771,0.651635,0.736307,0.604616,0.428253,0.508451,0.567579,0.583053,0.320437,1
1446,0.457966,0.545003,0.314982,0.619209,0.581699,0.445167,0.410042,0.532673,0.141932,0
1447,0.365903,0.535333,0.278437,0.522539,0.589341,0.463801,0.101978,0.584929,0.388452,0
1448,0.245347,0.500236,0.367274,0.610486,0.511937,0.379266,0.30019,0.447902,0.74485,1
1449,0.774866,0.686611,0.225186,0.677173,0.581699,0.670478,0.582598,0.532673,0.318366,0
1450,0.623242,0.602768,0.304431,0.651125,0.554006,0.375521,0.684128,0.77764,0.589061,0
1451,0.73941,0.704554,0.299926,0.660069,0.581699,0.213697,0.437393,0.603527,0.714239,0
1452,0.583859,0.525798,0.31996,0.516933,0.706473,0.563143,0.443715,0.477071,0.479633,0
1453,0.573858,0.544729,0.408558,0.481338,0.572542,0.540934,0.494532,0.72255,0.189473,0
1454,0.58611,0.510879,0.321509,0.364054,0.581699,0.262061,0.492829,0.463049,0.412938,0
1455,0.563844,0.565358,0.271446,0.54657,0.598719,0.380349,0.655891,0.469217,0.389205,0
1456,0.505771,0.620161,0.181422,0.509967,0.749486,0.180232,0.532395,0.532673,0.34346,0
1457,0.39201,0.526225,0.351275,0.399379,0.581699,0.650167,0.416917,0.702094,0.416523,1
1458,0.583077,0.416406,0.167038,0.605518,0.837859,0.534808,0.52918,0.56172,0.50637,0
1459,0.4905,0.496266,0.232212,0.501554,0.688246,0.552969,0.482102,0.589764,0.384595,0
1460,0.415836,0.6264,0.651637,0.491572,0.581699,0.54495,0.391603,0.392589,0.464776,1
1461,0.532278,0.565008,0.254559,0.501154,0.581699,0.29285,0.340801,0.736278,0.468913,0
1462,0.492737,0.657875,0.748999,0.721098,0.706795,0.368795,0.447241,0.537437,0.448536,1
1463,0.538881,0.48129,0.278007,0.421859,0.581699,0.689748,0.485131,0.47068,0.564476,0
1464,0.293133,0.438357,0.359348,0.430378,0.581699,0.28571,0.508293,0.275686,0.445992,0
1465,0.38071,0.539017,0.388787,0.420945,0.585439,0.577453,0.627896,0.549399,0.822334,1
1466,0.497357,0.57813,0.38938,0.574517,0.646627,0.648393,0.244241,0.71297,0.625899,1
1467,0.489004,0.472981,0.265896,0.453637,0.51104,0.632172,0.399482,0.488084,0.616255,0
1468,0.44856,0.46595,0.1849,0.525087,0.581699,0.435139,0.516275,0.697881,0.345733,0
1469,0.481418,0.543877,0.564498,0.431913,0.375161,0.36471,0.596089,0.735398,0.55391,1
1470,0.392503,0.496942,0.433837,0.548299,0.57674,0.486411,0.621376,0.577125,0.503957,1
1471,0.541698,0.616091,0.591441,0.64037,0.701542,0.37141,0.583996,0.624558,0.4145,1
1472,0.41905,0.406255,0.262322,0.425261,0.581699,0.601075,0.339289,0.637266,0.728488,0
1473,0.456784,0.627477,0.340364,0.656556,0.622241,0.300567,0.668086,0.389187,0.620534,0
1474,0.415804,0.568086,0.605078,0.588322,0.568188,0.498898,0.451675,0.779551,0.552293,1
1475,0.393862,0.59894,0.452151,0.492709,0.447333,0.599911,0.416391,0.804631,0.569174,1
1476,0.480777,0.525964,0.360802,0.555659,0.581699,0.253326,0.368866,0.532673,0.550035,0
1477,0.371291,0.555085,0.605509,0.551789,0.519258,0.684875,0.576194,0.602053,0.348844,1
1478,0.505771,0.5208,0.152791,0.456155,0.636467,0.15718,0.430696,0.744334,0.605819,0
1479,0.525881,0.61012,0.458777,0.479605,0.581699,0.412907,0.549906,0.451569,0.469572,1
1480,0.504724,0.580102,0.364535,0.603733,0.608736,0.562673,0.381928,0.672702,0.506258,0
1481,0.387168,0.670875,0.406958,0.484124,0.581699,0.510238,0.330158,0.652975,0.436135,1
1482,0.501095,0.633609,0.263196,0.586057,0.636847,0.417329,0.254426,0.53387,0.718704,0
1483,0.505771,0.721123,0.109238,0.740545,0.820701,0.304356,0.42644,0.548834,0.508356,0
1484,0.431762,0.374472,0.217919,0.477827,0.774755,0.368488,0.675379,0.347441,0.655111,0
1485,0.442761,0.721983,0.509777,0.459252,0.581699,0.6042,0.318886,0.498024,0.401621,1
1486,0.548496,0.474328,0.327095,0.528178,0.581699,0.319118,0.372153,0.466776,0.309992,0
1487,0.575862,0.283916,0.575651,0.343492,0.581699,0.49309,0.187403,0.793891,0.30063,1
1488,0.518271,0.553994,0.529899,0.5652,0.555496,0.538224,0.387189,0.364666,0.476116,1
1489,0.505771,0.696458,0.24802,0.655949,0.747981,0.320836,0.458315,0.568123,0.374394,0
1490,0.485172,0.940163,0.462798,0.505629,0.466091,0.217942,0.260772,0.48818,0.199594,0
1491,0.526298,0.568059,0.134698,0.713719,0.854512,0.257199,0.343799,0.71515,0.422436,0
1492,0.63127,0.538264,0.185355,0.588498,0.57881,0.583085,0.386652,0.703307,0.120454,0
1493,0.507724,0.367049,0.383659,0.520664,0.596859,0.137237,0.575424,0.448694,0.485015,0
1494,0.37783,0.531841,0.352266,0.463898,0.653636,0.301279,0.45906,0.266538,0.585763,0
1495,0.512089,0.4173,0.645306,0.395801,0.487728,0.569272,0.550162,0.532673,0.582941,1
1496,0.549646,0.385857,0.185166,0.602868,0.581699,0.203183,0.410243,0.591835,0.330663,0
1497,0.620939,0.622964,0.266622,0.66732,0.642856,0.636075,0.194751,0.588937,0.612185,0
1498,0.505771,0.498216,0.292122,0.623646,0.717305,0.609879,0.658465,0.569677,0.307626,0
1499,0.499983,0.622838,0.258718,0.571439,0.643946,0.17665,0.57845,0.521873,0.361152,0
1500,0.492709,0.456883,0.267552,0.46974,0.569098,0.272711,0.392604,0.482074,0.574798,0
1501,0.45588,0.599968,0.393044,0.548611,0.581699,0.281709,0.388237,0.543647,0.270632,0
1502,0.708364,0.541081,0.605755,0.55233,0.337854,0.596414,0.126898,0.625439,0.367428,1
1503,0.400645,0.813222,0.437301,0.502603,0.476241,0.458835,0.568915,0.584847,0.360161,1
1504,0.44839,0.647498,0.369197,0.550862,0.581699,0.257407,0.422439,0.40617,0.316348,0
1505,0.505771,0.518098,0.245199,0.567177,0.673783,0.414426,0.425775,0.553349,0.443702,0
1506,0.551022,0.523267,0.31965,0.587441,0.600307,0.343516,0.640499,0.470171,0.562514,0
1507,0.453663,0.416339,0.361482,0.510056,0.711909,0.272084,0.36445,0.529196,0.426745,0
1508,0.568491,0.49837,0.435501,0.573129,0.56313,0.363342,0.338424,0.42002,0.483627,1
1509,0.472728,0.423743,0.220924,0.436279,0.581699,0.233826,0.378627,0.492742,0.443764,0
1510,0.428623,0.411946,0.341356,0.312104,0.489466,0.355454,0.270573,0.57004,0.515451,1
1511,0.456638,0.405296,0.343088,0.387231,0.534774,0.216417,0.561895,0.498259,0.344364,0
1512,0.498376,0.637838,0.327822,0.385342,0.434865,0.341897,0.45388,0.542659,0.173387,0
1513,0.453817,0.620683,0.301183,0.496156,0.520958,0.562956,0.506608,0.759755,0.455872,0
1514,0.429996,0.338914,0.334046,0.51284,0.581699,0.432295,0.23748,0.539931,0.245231,0
1515,0.523585,0.407599,0.239112,0.692178,0.801353,0.389453,0.581446,0.409015,0.271264,0
1516,0.660096,0.400793,0.513537,0.503018,0.581699,0.494076,0.377534,0.755575,0.452369,1
1517,0.470941,0.468569,0.353607,0.34106,0.581699,0.225497,0.464149,0.421541,0.46921,0
1518,0.496305,0.644922,0.107602,0.764382,0.852328,0.358652,0.522804,0.476514,0.50021,0
1519,0.505771,0.592331,0.219197,0.641424,0.822288,0.29862,0.312401,0.361555,0.362052,0
1520,0.505771,0.606814,0.341053,0.54908,0.460992,0.625194,0.477787,0.499113,0.404472,0
1521,0.424166,0.605885,0.172305,0.582665,0.581699,0.777543,0.585349,0.480698,0.46124,0
1522,0.589254,0.665601,0.534884,0.521955,0.430857,0.320791,0.569011,0.560137,0.535986,1
1523,0.49313,0.765691,0.576866,0.35455,0.219433,0.239812,0.450641,0.528376,0.457146,1
1524,0.543262,0.59102,0.152082,0.638544,0.68878,0.25216,0.367098,0.695879,0.775964,0
1525,0.470664,0.22223,0.557861,0.359876,0.535778,0.250248,0.662659,0.532673,0.327304,1
1526,0.536558,0.46132,0.25311,0.601353,0.581699,0.212683,0.583351,0.729538,0.157973,0
1527,0.521532,0.348212,0.761787,0.345736,0.350727,0.464023,0.397526,0.486041,0.323327,1
1528,0.484878,0.488244,0.416056,0.515683,0.634447,0.416907,0.369172,0.573559,0.530525,1
1529,0.505771,0.495513,0.384298,0.361053,0.422352,0.352122,0.307035,0.607024,0.428147,1
1530,0.505771,0.534398,0.620597,0.520247,0.580317,0.44669,0.442398,0.484761,0.360555,1
1531,0.478038,0.554867,0.602766,0.342471,0.43134,0.341324,0.394071,0.463083,0.282117,1
1532,0.430579,0.781221,0.276312,0.706567,0.713862,0.58242,0.706421,0.614878,0.497407,0
1533,0.47971,0.618917,0.276806,0.67037,0.750718,0.292938,0.465693,0.458447,0.180512,0
1534,0.535056,0.562316,0.430669,0.529845,0.522494,0.218344,0.605293,0.540459,0.549165,1
1535,0.505771,0.870313,0.67324,0.404327,0.581699,0.339666,0.451239,0.78793,0.543075,1
1536,0.452613,0.213819,0.250372,0.50876,0.887956,0.347899,0.115641,0.389394,0.549555,0
1537,0.527268,0.565952,0.017258,0.843613,0.984964,0.314516,0.549749,0.441292,0.356971,0
1538,0.518287,0.541248,0.720177,0.384623,0.373336,0.249653,0.227928,0.556839,0.583279,1
1539,0.501844,0.364668,0.343244,0.547192,0.734035,0.419013,0.451958,0.409178,0.623198,0
1540,0.543349,0.494784,0.476453,0.418913,0.370805,0.429306,0.452375,0.73707,0.588856,1
1541,0.498847,0.561584,0.189272,0.571862,0.581699,0.5342,0.53109,0.4958,0.512302,0
1542,0.453359,0.180814,0.318887,0.238801,0.501181,0.562088,0.494026,0.696209,0.581651,1
1543,0.523059,0.663461,0.399978,0.553705,0.553454,0.293481,0.279614,0.405008,0.478724,0
1544,0.484108,0.578975,0.244769,0.456392,0.546542,0.597626,0.401675,0.69306,0.531893,0
1545,0.597883,0.392182,0.441209,0.425789,0.581699,0.306083,0.21579,0.557201,0.24516,0
1546,0.474483,0.44058,0.594103,0.447011,0.481641,0.511619,0.463572,0.575756,0.538705,1
1547,0.444113,0.566847,0.250823,0.579214,0.659737,0.47466,0.474986,0.568813,0.510525,0
1548,0.47358,0.526275,0.590231,0.36179,0.421836,0.243044,0.482236,0.650989,0.359759,1
1549,0.575073,0.450937,0.460014,0.472808,0.53974,0.551574,0.536125,0.733277,0.438163,1
1550,0.601149,0.583601,0.45831,0.581771,0.47817,0.460037,0.400198,0.632949,0.657985,1
1551,0.505771,0.433389,0.389395,0.531093,0.62746,0.402188,0.278026,0.763927,0.433674,0
1552,0.566648,0.570536,0.203788,0.576531,0.574061,0.469,0.516078,0.443495,0.583141,0
1553,0.565543,0.486388,0.254238,0.54098,0.581699,0.192901,0.415464,0.619762,0.441309,0
1554,0.638718,0.610253,0.9222,0.225396,0,0.630281,0.272558,0.568629,0.549118,1
1555,0.502425,0.722512,0.248045,0.56507,0.501708,0.585344,0.587234,0.737168,0.469225,0
1556,0.505771,0.401809,0.737561,0.290636,0.33571,0.381708,0.53204,0.428064,0.502714,1
1557,0.541432,0.644402,0.516022,0.433096,0.581699,0.563819,0.624613,0.629686,0.474501,1
1558,0.605232,0.296737,0.330748,0.537058,0.581699,0.715951,0.501636,0.512744,0.635316,1
1559,0.486887,0.688585,0.391574,0.653934,0.627139,0.516806,0.55073,0.748063,0.534078,1
1560,0.461431,0.609407,0.582122,0.481452,0.507238,0.321076,0.227109,0.623201,0.394327,1
1561,0.444845,0.444315,0.36498,0.361769,0.47838,0.487763,0.712245,0.750943,0.483522,1
1562,0.505771,0.519186,0.299938,0.55721,0.662292,0.50705,0.442921,0.72665,0.5578,0
1563,0.505771,0.537226,0.062745,0.746826,0.947287,0.444051,0.522837,0.532673,0.408947,0
1564,0.402338,0.858078,0.459633,0.531715,0.538206,0.427554,0.368323,0.542852,0.692873,1
1565,0.442232,0.667015,0.483652,0.315389,0.338903,0.537668,0.414641,0.432598,0.352632,1
1566,0.550074,0.268935,0.273502,0.505708,0.63986,0.326551,0.413688,0.555907,0.367836,0
1567,0.505771,0.506403,0.399197,0.683357,0.581699,0.458784,0.339231,0.595238,0.387354,0
1568,0.630903,0.551315,0.406841,0.506118,0.581699,0.476121,0.476339,0.664541,0.37855,1
1569,0.403292,0.623562,0.363423,0.620881,0.73016,0.384313,0.553644,0.246922,0.470506,0
1570,0.523722,0.500497,0.395552,0.540262,0.581699,0.225192,0.488208,0.532673,0.463433,0
1571,0.564053,0.544702,0.149192,0.724701,0.770599,0.156175,0.348682,0.425629,0.650304,0
1572,0.405378,0.657104,0.637889,0.443267,0.581699,0.259845,0.353386,0.474835,0.675263,1
1573,0.42933,0.497391,0.256454,0.611603,0.830854,0.232655,0.694047,0.673119,0.646112,0
1574,0.57043,0.483741,0.400485,0.41768,0.450446,0.44324,0.246839,0.680209,0.32199,1
1575,0.505771,0.785027,0.268446,0.579745,0.581699,0.430749,0.572872,0.625275,0.53962,0
1576,0.511401,0.436688,0.502035,0.401794,0.581699,0.447427,0.512717,0.495818,0.660587,1
1577,0.540371,0.602108,0.179382,0.615004,0.705114,0.280196,0.51609,0.539437,0.706183,0
1578,0.490398,0.667459,0.365559,0.416782,0.581699,0.551044,0.534673,0.736023,0.655364,1
1579,0.409763,0.481911,0.202977,0.591458,0.837644,0.408357,0.390531,0.673111,0.244241,0
1580,0.437791,0.546222,0.359348,0.55072,0.581699,0.49552,0.453203,0.49252,0.451435,0
1581,0.427955,0.50524,0.465995,0.436031,0.593777,0.4349,0.592512,0.550333,0.584113,1
1582,0.694527,0.520383,0.143757,0.735819,0.648764,0.457375,0.425587,0.503713,0.495758,0
1583,0.552594,0.64431,0.314843,0.532786,0.457193,0.441525,0.496315,0.600567,0.425585,0
1584,0.4797,0.528599,0.257544,0.471011,0.526808,0.235712,0.600212,0.685163,0.671158,0
1585,0.569054,0.422556,0.213997,0.557728,0.581699,0.323324,0.571872,0.532673,0.636481,0
1586,0.588754,0.392409,0.389471,0.570427,0.594533,0.414053,0.423979,0.534146,0.393161,0
1587,0.46711,0.609424,0.47054,0.521594,0.520794,0.427727,0.603448,0.440086,0.496578,1
1588,0.48467,0.613783,0.209796,0.408104,0.581699,0.284141,0.499565,0.526332,0.610308,0
1589,0.50057,0.730789,0.423854,0.580958,0.58533,0.388681,0.333543,0.605175,0.601054,1
1590,0.552885,0.478325,0.199599,0.754413,0.830592,0.507642,0.238023,0.530784,0.295587,0
1591,0.565578,0.463943,0.48016,0.554221,0.581699,0.246651,0.349013,0.562856,0.603147,1
1592,0.412341,0.502839,0.433007,0.42713,0.579703,0.229752,0.389895,0.259798,0.511379,1
1593,0.540835,0.455495,0.139799,0.721261,0.872919,0.21745,0.337532,0.7443,0.467061,0
1594,0.623823,0.565719,0.398276,0.488622,0.453593,0.271642,0.555629,0.552117,0.321271,0
1595,0.494133,0.555959,0.448733,0.483583,0.547385,0.475911,0.348022,0.739921,0.774091,1
1596,0.608056,0.399848,0.538068,0.502033,0.502387,0.342978,0.425647,0.343021,0.487166,1
1597,0.46708,0.620938,0.377422,0.534281,0.64325,0.705913,0.327285,0.324803,0.522154,1
1598,0.505771,0.657708,0.522785,0.517362,0.525929,0.224049,0.652045,0.434278,0.772826,1
1599,0.587649,0.823092,0.660458,0.53058,0.319424,0.413021,0.291558,0.638146,0.410131,1
1600,0.519586,0.394204,0.261631,0.571628,0.716359,0.717516,0.387452,0.478189,0.321944,0
1601,0.508499,0.411802,0.528799,0.370812,0.463846,0.452619,0.299163,0.494409,0.73723,1
1602,0.505771,0.420679,0.534339,0.447342,0.535372,0.171656,0.329949,0.655421,0.401703,1
1603,0.424424,0.731728,0.237366,0.472695,0.587438,0.587668,0.526126,0.533931,0.539266,0
1604,0.519922,0.31857,0.358971,0.532645,0.650255,0.522261,0.349272,0.439762,0.520245,0
1605,0.531799,0.374852,0.063167,0.80011,0.987243,0.304437,0.503924,0.600534,0.245,0
1606,0.460178,0.491996,0.185063,0.673874,0.793234,0.355911,0.534416,0.670073,0.272456,0
1607,0.505771,0.520311,0.648235,0.380797,0.452323,0.321171,0.439879,0.739788,0.66929,1
1608,0.494266,0.534753,0.578558,0.471231,0.485147,0.373074,0.374864,0.560717,0.504978,1
1609,0.462312,0.425609,0.392826,0.569159,0.693726,0.326297,0.404756,0.779295,0.507577,0
1610,0.589373,0.435099,0.283993,0.523869,0.552225,0.167749,0.394387,0.491126,0.386663,0
1611,0.505771,0.523168,0.306096,0.610282,0.539704,0.301854,0.493197,0.676426,0.595701,0
1612,0.479079,0.593614,0.171967,0.596101,0.694746,0.392955,0.635313,0.532673,0.225042,0
1613,0.517157,0.387046,0.506085,0.348733,0.375573,0.471326,0.331491,0.532673,0.36166,1
1614,0.466321,0.496921,0.17263,0.506797,0.709528,0.435309,0.437599,0.81196,0.592923,0
1615,0.502274,0.464409,0.202492,0.585879,0.581699,0.682578,0.422088,0.48958,0.241173,0
1616,0.535314,0.572228,0.406152,0.511128,0.565148,0.23014,0.551305,0.586058,0.402657,0
1617,0.49696,0.60556,0.241133,0.520169,0.567618,0.501997,0.582654,0.839424,0.650794,0
1618,0.505771,0.478709,0.267113,0.630438,0.536424,0.2556,0.511632,0.532673,0.35496,0
1619,0.497309,0.5722,0.573145,0.37078,0.357156,0.312271,0.437454,0.532673,0.58173,1
1620,0.464973,0.545273,0.32511,0.50965,0.636342,0.509261,0.339418,0.518613,0.444852,0
1621,0.576378,0.52077,0.268176,0.60166,0.629428,0.413942,0.386734,0.391615,0.297104,0
1622,0.515241,0.603337,0.444236,0.513761,0.564489,0.482685,0.604166,0.532673,0.378794,1
1623,0.48506,0.813115,0.230315,0.749222,0.68131,0.75044,0.275356,0.73554,0.375927,0
1624,0.498229,0.464246,0.580896,0.402525,0.457497,0.383967,0.309781,0.53287,0.719698,1
1625,0.530159,0.565455,0.65391,0.410983,0.362441,0.38522,0.26152,0.42415,0.574118,1
1626,0.464648,0.64923,0.273555,0.515575,0.537583,0.529166,0.62556,0.646791,0.272452,0
1627,0.472704,0.46011,0.54058,0.522128,0.560089,0.521871,0.525629,0.483537,0.595831,1
1628,0.483555,0.474804,0.273524,0.524438,0.684333,0.206207,0.632324,0.504053,0.453131,0
1629,0.452982,0.335619,0.291224,0.626954,0.819822,0.290248,0.42584,0.466348,0.485727,0
1630,0.504205,0.522744,0.265196,0.632782,0.678501,0.492272,0.397487,0.136212,0.470284,0
1631,0.538521,0.765557,0.438025,0.520555,0.391452,0.298521,0.477042,0.473957,0.752008,1
1632,0.505771,0.419799,0.594432,0.403986,0.442076,0.596505,0.467261,0.633857,0.604215,1
1633,0.535058,0.549651,0.107585,0.640495,0.581699,0.452887,0.338983,0.488374,0.428506,0
1634,0.431245,0.651459,0.207989,0.636,0.748175,0.218415,0.188597,0.328183,0.405411,0
1635,0.505771,0.403578,0.137922,0.606849,0.842854,0.506401,0.503983,0.601545,0.367203,0
1636,0.47905,0.672833,0.452508,0.589389,0.591173,0.457674,0.472161,0.51422,0.552445,1
1637,0.505771,0.39521,0.43616,0.35556,0.462797,0.6518,0.462724,0.427901,0.616312,1
1638,0.505771,0.503945,0.118807,0.712502,0.786971,0.186908,0.408483,0.579652,0.504115,0
1639,0.482775,0.619247,0.36482,0.535768,0.499049,0.351518,0.637499,0.430607,0.414062,0
1640,0.53477,0.3764,0.505847,0.331278,0.581699,0.297436,0.641323,0.425104,0.245496,1
1641,0.493152,0.658446,0.172659,0.582434,0.662717,0.580047,0.40247,0.322955,0.508947,0
1642,0.505771,0.391127,0.69445,0.428761,0.909772,0.480366,0.708083,0.619814,0.264039,1
1643,0.524924,0.798802,0.254445,0.80021,0.581699,0.63,0.429431,0.437127,0.619351,0
1644,0.560433,0.640667,0.376696,0.436037,0.486897,0.361081,0.429377,0.343473,0.19625,0
1645,0.505771,0.660841,0.322377,0.568035,0.444372,0.542786,0.338196,0.685563,0.314571,0
1646,0.441415,0.73053,0.24744,0.599785,0.409302,0.535345,0.287221,0.559451,0.426229,0
1647,0.482548,0.587359,0.221662,0.564025,0.584096,0.555359,0.656672,0.651951,0.474479,0
1648,0.505771,0.60292,0.458833,0.25676,0.581699,0.528652,0.518847,0.633389,0.541178,1
1649,0.519043,0.185065,0.59385,0.531257,0.835687,0.562026,0.197731,0.612941,0.662268,1
1650,0.587012,0.248937,0.363587,0.363871,0.581699,0.396735,0.17367,0.732223,0.528729,1
1651,0.498576,0.423281,0.284117,0.479652,0.692407,0.544225,0.362673,0.38919,0.476359,0
1652,0.455856,0.683782,0.306406,0.621097,0.581699,0.577068,0.535768,0.625509,0.349602,0
1653,0.474858,0.523808,0.243905,0.415629,0.581699,0.506355,0.507214,0.452649,0.44995,0
1654,0.421424,0.574851,0.493519,0.711871,0.520646,0.578557,0.15732,0.440746,0.45547,1
1655,0.518636,0.513783,0.345945,0.487269,0.646598,0.365128,0.467111,0.651819,0.554703,0
1656,0.39828,0.638183,0.233674,0.730894,0.300002,0.125004,0.385038,0.476911,0.537804,0
1657,0.390529,0.542623,0.206255,0.697682,0.620461,0.303732,0.404695,0.538865,0.428781,0
1658,0.435001,0.614106,0.200931,0.700219,0.536837,0.398601,0.327772,0.245232,0.282383,0
1659,0.586103,0.356794,0.289959,0.487551,0.654467,0.417779,0.523249,0.811072,0.432959,0
1660,0.547893,0.275324,0.550398,0.380773,0.743531,0.492226,0.632135,0.666602,0.469621,1
1661,0.485078,0.58651,0.325553,0.426771,0.452679,0.192041,0.388021,0.458905,0.308951,0
1662,0.429055,0.650879,0.327696,0.611696,0.274171,0.165256,0.285471,0.421071,0.488704,0
1663,0.505771,0.569305,0.535748,0.441744,0.555364,0.276568,0.087092,0.571567,0.653286,1
1664,0.452596,0.604443,0.234765,0.48786,0.531195,0.331046,0.383885,0.672802,0.442201,0
1665,0.533803,0.637788,0.321997,0.424118,0.536058,0.714934,0.435131,0.719732,0.459012,1
1666,0.505771,0.604882,0.350544,0.620034,0.581699,0.510496,0.517506,0.587628,0.528718,0
1667,0.52715,0.690955,0.271591,0.528361,0.503317,0.519658,0.423543,0.747404,0.676962,0
1668,0.719117,0.352502,0.646817,0.32496,0.743999,0.408435,0.592291,0.532673,0.43993,1
1669,0.422567,0.822772,0.109132,0.76066,0.337032,0.244384,0.37901,0.314051,0.214757,0
1670,0.505771,0.450731,0.634584,0.627286,0.729919,0.377642,0.574774,0.591496,0.225603,1
1671,0.437489,0.378173,0.242521,0.489925,0.719593,0.361372,0.552565,0.555158,0.52221,0
1672,0.505771,0.325804,0.332856,0.282514,0.751879,0.592676,0.653239,0.399896,0.35024,0
1673,0.562607,0.738014,0.253178,0.604598,0.581699,0.36683,0.549574,0.474664,0.465855,0
1674,0.430075,0.474412,0.306133,0.771943,0.581699,0.383106,0.407733,0.48784,0.60712,0
1675,0.505771,0.528617,0.337789,0.546346,0.654564,0.412586,0.558894,0.303167,0.447798,0
1676,0.505771,0.432601,0.237849,0.504881,0.399703,0.620526,0.44595,0.623163,0.375269,0
1677,0.470389,0.433578,0.490743,0.716736,0.600078,0.434714,0.805913,0.584624,0.534248,1
1678,0.453048,0.397596,0.34083,0.541924,0.539309,0.296473,0.452841,0.516538,0.592284,0
1679,0.473785,0.692413,0.205367,0.547582,0.574671,0.472583,0.668235,0.587882,0.550359,0
1680,0.385764,0.545852,0.158408,0.589197,0.581699,0.563798,0.582717,0.621804,0.398135,0
1681,0.532868,0.630817,0.413093,0.514673,0.581699,0.449649,0.417206,0.465237,0.182195,0
1682,0.479273,0.365702,0.338245,0.335153,0.581699,0.382715,0.61804,0.322545,0.044928,0
1683,0.57535,0.695369,0.463407,0.37142,0.581699,0.687091,0.596859,0.451193,0.392207,1
1684,0.383228,0.692291,0.261746,0.560151,0.359471,0.370808,0.393297,0.213835,0.327245,0
1685,0.494313,0.743296,0.176752,0.754707,0.445259,0.327258,0.571678,0.348275,0.345548,0
1686,0.501818,0.497122,0.514545,0.381998,0.581699,0.660161,0.467167,0.450684,0.279269,1
1687,0.569589,0.458188,0.435549,0.446461,0.593529,0.290744,0.442819,0.606816,0.330109,1
1688,0.573647,0.635479,0.292481,0.657731,0.526862,0.474744,0.378006,0.631271,0.357134,0
1689,0.543861,0.603061,0.28367,0.608949,0.581699,0.354289,0.10926,0.568669,0.375864,0
1690,0.54597,0.589168,0.354062,0.718374,0.581699,0.273054,0.255311,0.510368,0.437164,0
1691,0.552237,0.441136,0.624489,0.444341,0.478167,0.602239,0.531461,0.60174,0.702266,1
1692,0.447743,0.389021,0.373186,0.507314,0.459344,0.419223,0.447562,0.528576,0.366743,1
1693,0.526422,0.392513,0.311338,0.397888,0.769651,0.366944,0.611056,0.510787,0.448425,0
1694,0.505771,0.702772,0.41663,0.418204,0.582057,0.358156,0.472458,0.269186,0.509054,1
1695,0.451455,0.429427,0.331012,0.567825,0.63997,0.421183,0.482527,0.367551,0.24175,0
1696,0.520721,0.572309,0.423514,0.374629,0.649927,0.387143,0.220708,0.510786,0.6146,1
1697,0.454037,0.425062,0.28269,0.62569,0.613995,0.436254,0.503044,0.375488,0.371625,0
1698,0.569576,0.409124,0.478716,0.164698,0.554087,0.331775,0.631951,0.434381,0.495195,1
1699,0.353108,0.798358,0.189627,0.667387,0.581699,0.412565,0.500107,0.178577,0.684599,0
1700,0.550026,0.628019,0.477968,0.470003,0.550379,0.460732,0.414844,0.62543,0.441763,1
1701,0.432472,0.655681,0.162461,0.440859,0.505061,0.454683,0.575829,0.524105,0.650248,0
1702,0.30153,0.265253,0.559044,0.595608,0.802717,0.446423,0.467274,0.518112,0.534829,1
1703,0.610421,0.754077,0.504638,0.255795,0.581699,0.429126,0.443793,0.273485,0.678178,1
1704,0.553727,0.488345,0.218939,0.506086,0.592999,0.25659,0.499277,0.74246,0.619306,0
1705,0.399152,0.62891,0.138071,0.623867,0.486379,0.404339,0.163932,0.648211,0.324375,0
1706,0.617848,0.475737,0.298538,0.539242,0.645578,0.258841,0.501174,0.673731,0.308505,0
1707,0.564233,0.508788,0.523589,0.363582,0.544079,0.382378,0.67715,0.374611,0.566869,1
1708,0.425162,0.324487,0.456193,0.546298,0.740872,0.424021,0.504743,0.553551,0.627674,1
1709,0.574299,0.559963,0.189481,0.536071,0.486885,0.41805,0.190368,0.730345,0.334872,0
1710,0.308087,0.521188,0.204411,0.616796,0.44299,0.55673,0.432999,0.614187,0.467686,0
1711,0.479073,0.58887,0.237635,0.583741,0.581699,0.650791,0.223278,0.628735,0.324377,0
1712,0.418111,0.505549,0.31967,0.490316,0.581699,0.539142,0.669376,0.521669,0.436164,0
1713,0.629814,0.465458,0.375206,0.499324,0.676515,0.648046,0.211997,0.735874,0.456438,1
1714,0.505771,0.449788,0.638467,0.341175,0.640412,0.350089,0.690118,0.784353,0.257611,1
1715,0.505771,0.530103,0.317708,0.564923,0.606974,0.247005,0.624965,0.624461,0.384102,0
1716,0.534029,0.720923,0.439839,0.73894,0.602685,0.276723,0.537076,0.623591,0.383474,0
1717,0.549392,0.390847,0.595297,0.57446,0.784504,0.621492,0.536972,0.62342,0.490168,1
1718,0.526241,0.467562,0.268325,0.603584,0.581699,0.303014,0.325016,0.297134,0.447573,0
1719,0.637708,0.510071,0.358238,0.30534,0.702594,0.449467,0.245133,0.74711,0.760891,1
1720,0.401516,0.631928,0.17737,0.66203,0.527998,0.253327,0.655653,0.678549,0.376395,0
1721,0.46076,0.559192,0.449241,0.415119,0.531505,0.684697,0.476732,0.532673,0.716873,1
1722,0.540466,0.572975,0.500815,0.584316,0.639649,0.373892,0.379128,0.511347,0.345083,1
1723,0.436831,0.702027,0.253584,0.762141,0.597682,0.394915,0.731994,0.5057,0.429878,0
1724,0.542516,0.511227,0.534404,0.500477,0.670989,0.25381,0.447637,0.589802,0.387144,1
1725,0.505771,0.840795,0.18158,0.644548,0.525984,0.500376,0.332568,0.553595,0.341515,0
1726,0.509373,0.429744,0.30619,0.574432,0.581699,0.576189,0.545124,0.376426,0.616977,0
1727,0.528552,0.763852,0.299051,0.402752,0.598922,0.302843,0.489617,0.586316,0.443396,0
1728,0.500177,0.440784,0.331618,0.76587,0.581699,0.482922,0.291683,0.455808,0.359697,0
1729,0.38181,0.693086,0.164095,0.584783,0.433973,0.550603,0.39941,0.702608,0.172601,0
1730,0.441854,0.46198,0.359208,0.568023,0.581699,0.520422,0.44231,0.411799,0.710101,1
1731,0.433578,0.413861,0.434168,0.46102,0.581699,0.532269,0.635269,0.658825,0.61438,1
1732,0.506826,0.541557,0.491152,0.440932,0.509057,0.476465,0.531139,0.250012,0.644976,1
1733,0.505771,0.516263,0.269532,0.522851,0.581699,0.400441,0.473006,0.481918,0.31061,0
1734,0.280611,0.523171,0.279236,0.574592,0.504159,0.392758,0.282705,0.362989,0.682707,0
1735,0.453784,0.71607,0.222272,0.690993,0.581699,0.388342,0.395407,0.473049,0.511532,0
1736,0.428509,0.624915,0.312363,0.444434,0.384299,0.552572,0.543341,0.369664,0.680086,1
1737,0.635685,0.582805,0.288873,0.347677,0.58396,0.349169,0.467385,0.385857,0.468636,0
1738,0.52681,0.534785,0.467059,0.36964,0.627744,0.548305,0.461597,0.619463,0.695291,1
1739,0.64138,0.496486,0.404661,0.462825,0.585793,0.531774,0.232957,0.512779,0.532226,1
1740,0.609456,0.613083,0.491698,0.465516,0.573753,0.445357,0.371483,0.447695,0.175853,1
1741,0.515253,0.468668,0.564909,0.376538,0.450833,0.263554,0.311398,0.62082,0.387121,1
1742,0.505771,0.497783,0.230636,0.608838,0.584476,0.508598,0.53155,0.592009,0.592382,0
1743,0.635398,0.217458,0.448259,0.454898,0.940563,0.460683,0.451921,0.629638,0.624737,1
1744,0.470197,0.622988,0.35531,0.51945,0.624662,0.27931,0.497255,0.55365,0.419527,0
1745,0.505771,0.568782,0.235517,0.644174,0.657297,0.311508,0.496674,0.472227,0.553508,0
1746,0.505771,0.410472,0.801304,0.469072,0.796811,0.256079,0.467722,0.518465,0.347441,1
1747,0.427614,0.828658,0.343284,0.672284,0.581699,0.301872,0.367179,0.742238,0.68094,0
1748,0.488659,0.43253,0.458785,0.529449,0.53913,0.613265,0.738295,0.628659,0.688668,1
1749,0.505771,0.40043,0.351285,0.395647,0.581699,0.52026,0.640957,0.644682,0.449191,1
1750,0.510437,0.486058,0.540924,0.628551,0.693682,0.530945,0.508428,0.422474,0.628701,1
1751,0.505771,0.690168,0.353688,0.673928,0.537376,0.44225,0.362656,0.478961,0.471411,0
1752,0.536255,0.453666,0.295663,0.513169,0.631816,0.342027,0.324837,0.552597,0.425979,0
1753,0.571227,0.607154,0.332554,0.457096,0.519864,0.580662,0.593989,0.564271,0.636731,1
1754,0.369596,0.677918,0.187594,0.517359,0.528326,0.394535,0.443359,0.287563,0.423359,0
1755,0.505771,0.521301,0.375189,0.530736,0.459361,0.321158,0.401513,0.5544,0.48562,0
1756,0.462792,0.484333,0.457177,0.532922,0.688592,0.330162,0.564849,0.532673,0.310001,1
1757,0.557965,0.767014,0.338076,0.470431,0.45491,0.419071,0.284738,0.575727,0.585379,0
1758,0.53123,0.708392,0.326151,0.451637,0.503278,0.405996,0.308919,0.517525,0.456962,0
1759,0.568134,0.473842,0.301387,0.418594,0.679537,0.305688,0.629832,0.492648,0.266633,0
1760,0.456898,0.712,0.196335,0.504309,0.581699,0.538534,0.591496,0.532673,0.517725,0
1761,0.505771,0.583749,0.363233,0.395479,0.593879,0.628504,0.2981,0.680113,0.405454,1
1762,0.575581,0.521763,0.475771,0.452225,0.646663,0.169655,0.398705,0.525493,0.317756,1
1763,0.505771,0.371454,0.327763,0.755685,0.721849,0.303748,0.567184,0.430479,0.109449,0
1764,0.505771,0.629518,0.429706,0.359905,0.581699,0.362826,0.723584,0.56407,0.647643,1
1765,0.678376,0.279481,0.547733,0.349327,0.847041,0.609824,0.680855,0.39811,0.71698,1
1766,0.570336,0.267093,0.663131,0.426211,0.89867,0.274589,0.406851,0.474852,0.589503,1
1767,0.447222,0.808998,0.135478,0.749125,0.446914,0.541146,0.410975,0.174274,0.624507,0
1768,0.496986,0.623188,0.326644,0.524626,0.504636,0.436973,0.583416,0.451864,0.593259,0
1769,0.690226,0.305703,0.395149,0.303886,0.581699,0.432664,0.610861,0.524269,0.722295,1
1770,0.480908,0.5453,0.550021,0.551449,0.636809,0.244607,0.656724,0.686618,0.460466,1
1771,0.349004,0.8179,0.249164,0.519231,0.390768,0.67866,0.578603,0.639775,0.308068,0
1772,0.686444,0.397173,0.552217,0.335579,0.581699,0.531417,0.338998,0.532673,0.664014,1
1773,0.608467,0.293195,0.520428,0.446712,0.935831,0.651656,0.527824,0.703654,0.509958,1
1774,0.496485,0.559949,0.351174,0.451567,0.63433,0.412166,0.669866,0.393461,0.48175,0
1775,0.430216,0.447239,0.17411,0.614401,0.502219,0.572462,0.384851,0.504858,0.419378,0
1776,0.643677,0.437035,0.567174,0.218204,0.771784,0.356602,0.550735,0.403925,0.533334,1
1777,0.567626,0.833122,0.392787,0.564319,0.410147,0.219204,0.367672,0.562068,0.300337,0
1778,0.550687,0.516413,0.535078,0.423175,0.678242,0.378348,0.49963,0.532673,0.508683,1
1779,0.434401,0.586262,0.160889,0.708789,0.581699,0.400493,0.22208,0.814693,0.48403,0
1780,0.58187,0.522142,0.331423,0.40117,0.581699,0.462435,0.27651,0.459393,0.704852,1
1781,0.581562,0.591038,0.412314,0.629261,0.727882,0.245487,0.355691,0.68604,0.508026,0
1782,0.55024,0.59455,0.205907,0.696149,0.621056,0.729514,0.31963,0.733241,0.620557,0
1783,0.505771,0.368567,0.449327,0.650388,0.442989,0.187168,0.518645,0.50315,0.438893,1
1784,0.660918,0.437476,0.820249,0.434681,0.81371,0.382122,0.373558,0.49909,0.349893,1
1785,0.431975,0.471585,0.46486,0.61232,0.581699,0.35879,0.510151,0.24191,0.215517,1
1786,0.43949,0.448665,0.404844,0.615615,0.55343,0.392773,0.332614,0.527143,0.558344,1
1787,0.648209,0.498684,0.349928,0.553846,0.753334,0.276067,0.17081,0.532673,0.451972,0
1788,0.531181,0.434893,0.519072,0.590557,0.581699,0.379622,0.483695,0.555847,0.57622,1
1789,0.505771,0.769841,0.190927,0.711033,0.426102,0.503278,0.365993,0.594336,0.379722,0
1790,0.509293,0.827909,0.15039,0.631229,0.473308,0.353184,0.617735,0.759993,0.101379,0
1791,0.485152,0.429328,0.286697,0.361534,0.507776,0.330705,0.495712,0.777714,0.490194,0
1792,0.505771,0.66378,0.239648,0.725363,0.581699,0.345696,1,0.64006,0.456595,0
1793,0.634688,0.451256,0.308541,0.481511,0.781478,0.381543,0.590942,0.617329,0.291794,0
1794,0.676808,0.370435,0.529456,0.389969,0.581699,0.445423,0.449347,0.576788,0.614774,1
1795,0.505771,0.440822,0.340019,0.407985,0.782157,0.453728,0.388993,0.578407,0.612785,0
1796,0.513079,0.644502,0.07843,0.448506,0.660827,0.198489,0.127857,0.654832,0.483347,0
1797,0.439817,0.393206,0.420593,0.61144,0.480618,0.615195,0.465766,0.546663,0.627747,1
1798,0.461991,0.6865,0.120439,0.742775,0.242765,0.305782,0.467921,0.437306,0.266792,0
1799,0.505771,0.418958,0.403829,0.471428,0.73662,0.546997,0.463513,0.682002,0.539095,1
1800,0.534867,0.471254,0.401685,0.646677,0.682357,0.360901,0.457834,0.391264,0.382688,0
1801,0.52311,0.495858,0.340248,0.508098,0.563193,0.346254,0.235067,0.726696,0.651999,0
1802,0.505771,0.748045,0.217504,0.694842,0.361018,0.652416,0.441063,0.786747,0.305735,0
1803,0.466485,0.328539,0.309552,0.547628,0.581699,0.540624,0.541684,0.532673,0.327403,0
1804,0.495105,0.396853,0.582417,0.542805,0.726229,0.379751,0.599933,0.580053,0.529275,1
1805,0.555332,0.534299,0.2218,0.411047,0.581699,0.245553,0.638733,0.532673,0.46546,0
1806,0.579107,0.457876,0.442592,0.492495,0.639255,0.260078,0.538582,0.532673,0.604613,1
1807,0.45049,0.629463,0.362819,0.532396,0.440234,0.296271,0.676681,0.495677,0.599201,1
1808,0.505771,0.429124,0.37072,0.421424,0.711231,0.511177,0.416968,0.505404,0.49521,1
1809,0.47212,0.612989,0.289673,0.577167,0.617234,0.497709,0.355112,0.328689,0.404452,0
1810,0.473729,0.672151,0.155796,0.625032,0.49236,0.484181,0.425473,0.523931,0.37696,0
1811,0.505771,0.724475,0.305694,0.527153,0.50007,0.416133,0.404525,0.48337,0.53648,0
1812,0.40834,0.542896,0.202288,0.653625,0.44886,0.286085,0.577547,0.467894,0.497386,0
1813,0.55289,0.490073,0.3184,0.665549,0.719658,0.537831,0.255439,0.463561,0.395409,0
1814,0.448377,0.365459,0.37099,0.366625,0.581699,0.512599,0.283684,0.495674,0.410157,1
1815,0.571884,0.251343,0.734247,0.376774,0.581699,0.325614,0.430083,0.702925,0.178957,1
1816,0.465215,0.50022,0.425927,0.500207,0.454547,0.39978,0.410906,0.672666,0.431076,1
1817,0.4453,0.65337,0.359147,0.71261,0.581699,0.296745,0.415317,0.506449,0.460483,0
1818,0.519796,0.534832,0.294701,0.451658,0.613241,0.386775,0.508036,0.618595,0.658225,0
1819,0.431751,0.595394,0.490438,0.576305,0.568607,0.436493,0.322599,0.532673,0.695364,1
1820,0.474502,0.572382,0.3315,0.434921,0.523687,0.479506,0.529576,0.417123,0.4273,0
1821,0.36789,0.504653,0.30103,0.522294,0.581699,0.346334,0.590194,0.471305,0.509932,0
1822,0.436468,0.432386,0.344773,0.573718,0.517721,0.278297,0.437694,0.768742,0.872482,1
1823,0.559366,0.489829,0.308836,0.504975,0.600164,0.440627,0.329272,0.609739,0.44583,0
1824,0.498623,0.555095,0.501457,0.457478,0.746148,0.421443,0.2631,0.385459,0.753946,1
1825,0.610913,0.617977,0.635561,0.519351,0.695241,0.278185,0.64693,0.430936,0.281877,1
1826,0.46067,0.828151,0.136056,0.575314,0.406776,0.354802,0.531736,0.435385,0.428328,0
1827,0.528006,0.457383,0.326153,0.686413,0.724702,0.224865,0.809107,0.652201,0.440246,0
1828,0.5972,0.619197,0.466311,0.405848,0.514974,0.50724,0.323546,0.397803,0.428427,1
1829,0.544275,0.239661,0.606804,0.470299,0.70697,0.181629,0.568216,0.390965,0.44047,1
1830,0.386036,0.767057,0.161679,0.727687,0.340061,0.376714,0.510046,0.527878,0.481788,0
1831,0.505665,0.324911,0.393411,0.419076,0.865362,0.28196,0.264902,0.710605,0.775794,1
1832,0.505771,0.67617,0.528282,0.492007,0.622066,0.42522,0.414866,0.4482,0.538134,1
1833,0.511551,0.692445,0.219351,0.698405,0.441461,0.519854,0.560777,0.597472,0.465111,0
1834,0.489639,0.371507,0.260764,0.421354,0.700844,0.295284,0.364709,0.606519,0.659671,0
1835,0.522111,0.716045,0.3605,0.576405,0.681869,0.517176,0.393683,0.487327,0.426813,0
1836,0.665248,0.31089,0.684029,0.491275,0.818808,0.150943,0.312959,0.606011,0.575461,1
1837,0.505771,0.612421,0.437449,0.472137,0.822355,0.684917,0.67788,0.401036,0.576862,1
1838,0.505771,0.737023,0.500385,0.471973,0.581699,0.275121,0.586533,0.600265,0.362105,1
1839,0.441996,0.733047,0.202955,0.461935,0.381411,0.163119,0.46563,0.4615,0.396329,0
1840,0.505771,0.702059,0.182383,0.404225,0.393945,0.247743,0.24775,0.71345,0.444777,0
1841,0.568953,0.377631,0.409706,0.528692,0.634366,0.605402,0.52079,0.418057,0.366985,1
1842,0.661742,0.409866,0.316664,0.284677,0.817254,0.430718,0.490153,0.771258,0.326247,0
1843,0.55386,0.529641,0.307002,0.60705,0.707296,0.727456,0.258231,0.364941,0.436812,0
1844,0.670992,0.744698,0.21064,0.533432,0.581699,0.327617,0.467333,0.405943,0.302243,0
1845,0.584006,0.559036,0.353593,0.382704,0.543305,0.495436,0.514469,0.494205,0.50337,1
1846,0.59555,0.43903,0.503201,0.39923,0.581699,0.211483,0.472409,0.329824,0.378937,1
1847,0.505771,0.580339,0.191152,0.572411,0.558568,0.560574,0.567542,0.517287,0.257804,0
1848,0.513645,0.376778,0.385188,0.693731,0.780581,0.496002,0.562614,0.62288,0.533304,0
1849,0.615264,0.683779,0.337264,0.569124,0.70948,0.414812,0.437091,0.532673,0.472532,0
1850,0.556646,0.762538,0.280389,0.619902,0.347651,0.451541,0.281879,0.434014,0.366661,0
1851,0.277063,0.472559,0.354915,0.549336,0.483599,0.464835,0.392794,0.506442,0.657537,1
1852,0.505771,0.42397,0.409084,0.314148,0.629446,0.406059,0.506557,0.367034,0.429907,1
1853,0.284163,0.41128,0.231714,0.630833,0.517839,0.407171,0.711551,0.629028,0.435161,0
1854,0.426005,0.702229,0.358705,0.458405,0.581699,0.533406,0.420421,0.519067,0.613863,1
1855,0.538004,0.500829,0.396245,0.425761,0.581699,0.371574,0.493113,0.600693,0.445939,1
1856,0.516681,0.667879,0.267633,0.447831,0.581699,0.514704,0.24861,0.284727,0.421444,0
1857,0.505771,0.563597,0.190114,0.672884,0.677593,0.346381,0.43647,0.471228,0.32214,0
1858,0.505771,0.246511,0.75126,0.386482,0.876606,0.420617,0.329871,0.428997,0.522313,1
1859,0.534338,0.252547,0.46033,0.340573,0.81202,0.508125,0.618399,0.613381,0.428224,1
1860,0.319792,0.685005,0.435465,0.351519,0.224101,0.481755,0.537383,0.59465,0.544088,1
1861,0.505771,0.580209,0.407004,0.467929,0.615266,0.417472,0.771893,0.743049,0.243758,0
1862,0.505771,0.416522,0.467433,0.56902,0.706528,0.319641,0.460157,0.798142,0.572318,1
1863,0.451006,0.280806,0.505592,0.419721,0.581699,0.376298,0.62158,0.587075,0.550929,1
1864,0.505771,0.675616,0.279064,0.67276,0.386092,0.228187,0.327552,0.874977,0.527876,0
1865,0.630186,0.613005,0.439828,0.54561,0.581699,0.354169,0.52703,0.633536,0.56071,1
1866,0.494475,0.501962,0.2358,0.746366,0.602409,0.663282,0.77648,0.51644,0.269872,0
1867,0.505771,0.443399,0.414082,0.399632,0.750687,0.31178,0.560165,0.483832,0.408646,0
1868,0.493181,0.230089,0.536239,0.177633,0.680018,0.412279,0.380028,0.265787,0.682342,1
1869,0.467716,0.46637,0.624682,0.552881,0.423524,0.191722,0.659867,0.65414,0.847084,1
1870,0.470077,0.617016,0.396671,0.429366,0.515958,0.515818,0.353802,0.387905,0.389747,1
1871,0.561761,0.619246,0.373111,0.554208,0.627567,0.407236,0.482222,0.583067,0.403844,0
1872,0.438351,0.378511,0.332326,0.636858,0.724812,0.318496,0.441138,0.77757,0.61535,0
1873,0.496216,0.440519,0.282715,0.474166,0.733743,0.333192,0.498015,0.59442,0.217468,0
1874,0.443094,0.607265,0.477874,0.601399,0.683823,0.241813,0.308347,0.523849,0.385313,0
1875,0.505771,0.698978,0.620238,0.395186,0.581699,0.311428,0.433521,0.584389,0.333237,1
1876,0.598084,0.479119,0.356313,0.380669,0.597937,0.376339,0.440501,0.889918,0.252662,0
1877,0.505771,0.57264,0.194877,0.523901,0.523851,0.337565,0.369284,0.380617,0.676171,0
1878,0.422946,0.556823,0.280373,0.501307,0.426674,0.348016,0.346949,0.253349,0.434255,0
1879,0.6307,0.611879,0.285882,0.587422,0.705205,0.210563,0.536809,0.516553,0.562278,0
1880,0.505771,0.508471,0.215185,0.54525,0.581699,0.570217,0.610639,0.637763,0.732584,0
1881,0.488016,0.423815,0.224839,0.446496,0.433707,0.364591,0.484162,0.353958,0.320555,0
1882,0.66295,0.611101,0.596019,0.278004,0.581699,0.352843,0.645014,0.645613,0.495363,1
1883,0.532589,0.649661,0.14518,0.420683,0.581699,0.412062,0.301382,0.540038,0.535016,0
1884,0.506304,0.454338,0.41175,0.51579,0.642708,0.204925,0.438229,0.532673,0.33667,0
1885,0.403473,0.433811,0.233588,0.577953,0.581699,0.290821,0.325278,0.604815,0.741162,0
1886,0.306712,0.525691,0.398642,0.61915,0.375982,0.5148,0.32948,0.42902,0.69108,1
1887,0.691289,0.511211,0.428228,0.291361,0.758185,0.250966,0.563908,0.73566,0.298677,0
1888,0.618765,0.457394,0.328573,0.413651,0.882843,0.486395,0.53959,0.72355,0.693912,0
1889,0.421242,0.451962,0.496737,0.64952,0.751511,0.428466,0.540677,0.598773,0.285801,1
1890,0.67816,0.82482,0.353966,0.384635,0.669495,0.698764,0.438161,0.497977,0.3288,0
1891,0.505771,0.457185,0.2955,0.567174,0.43632,0.395481,0.689678,0.635768,0.516405,0
1892,0.505728,0.501987,0.642137,0.661792,0.44662,0.305065,0.21385,0.315473,0.00798,1
1893,0.539989,0.714067,0.480193,0.649384,0.581699,0.169608,0.300649,0.867038,0.586217,1
1894,0.502885,0.55006,0.364241,0.595035,0.581699,0.612027,0.478581,0.467905,0.46926,1
1895,0.575217,0.596141,0.603643,0.619611,0.347821,0.57954,0.650062,0.588267,0.35008,1
1896,0.50317,0.660778,0.2012,0.585971,0.742741,0.658716,0.51934,0.288244,0.534449,0
1897,0.450707,0.312733,0.504734,0.518482,0.349711,0.348993,0.574713,0.571494,0.407079,1
1898,0.443112,0.332607,0.104707,0.275915,0.581699,0.734521,0.427899,0.548106,0.539903,0
1899,0.491386,0.606836,0.331467,0.679706,0.546496,0.219111,0.393766,0.640539,0.614572,0
1900,0.55392,0.592287,0.304338,0.418141,0.70302,0.339575,0.479257,0.345296,0.695479,0
1901,0.565476,0.558681,0.642139,0.561522,0.418165,0.439105,0.598541,0.563853,0.534164,1
1902,0.457528,0.494883,0.331745,0.633916,0.673739,0.642036,0.430988,0.554235,0.582704,0
1903,0.556854,0.695872,0.451977,0.479373,0.645315,0.529188,0.631887,0.400695,0.529755,1
1904,0.497427,0.482312,0.206173,0.475311,0.581699,0.309574,0.541365,0.531913,0.574753,0
1905,0.497704,0.495123,0.214758,0.47794,0.68968,0.440241,0.474492,0.529694,0.651014,0
1906,0.473057,0.538409,0.222962,0.47057,0.733905,0.226223,0.366221,0.419174,0.786404,0
1907,0.526428,0.68571,0.306658,0.55205,0.655996,0.307038,0.606143,0.466756,0.380762,0
1908,0.505771,0.315131,0.127341,0.38905,0.581699,0.731178,0.270243,0.808016,0.363762,0
1909,0.496062,0.547874,0.272275,0.468838,0.484394,0.505572,0.492177,0.490079,0.527725,0
1910,0.377486,0.367913,0.177474,0.506338,0.587052,0.532162,0.443423,0.488442,0.480288,0
1911,0.489389,0.54375,0.246743,0.555336,0.581699,0.335863,0.351237,0.636188,0.65902,0
1912,0.554299,0.575921,0.557073,0.59322,0.483286,0.289752,0.657117,0.648082,0.593785,1
1913,0.52004,0.65692,0.482216,0.588573,0.549014,0.369058,0.496865,0.678496,0.277897,1
1914,0.488161,0.489758,0.350533,0.474023,0.55947,0.37746,0.548148,0.598113,0.228558,0
1915,0.480641,0.506981,0.427791,0.634494,0.593306,0.537707,0.593478,0.619768,0.594401,1
1916,0.572601,0.753839,0.501326,0.65831,0.581699,0.456434,0.340774,0.750728,0.73171,1
1917,0.490351,0.447586,0.330735,0.526189,0.67307,0.383804,0.452256,0.412658,0.575486,0
1918,0.414927,0.399432,0.125509,0.495357,0.380637,0.343115,0.582415,0.557537,0.406491,0
1919,0.6042,0.704904,0.476079,0.425149,0.525197,0.257224,0.616705,0.679634,0.449505,1
1920,0.499095,0.640579,0.216465,0.43203,0.581699,0.521705,0.525725,0.586768,0.457609,0
1921,0.520624,0.676646,0.513841,0.640461,0.576195,0.53958,0.384113,0.252016,0.393531,1
1922,0.579739,0.643223,0.265879,0.38659,0.581699,0.411138,0.377912,0.739223,0.203444,0
1923,0.533137,0.609546,0.440504,0.581676,0.721411,0.388592,0.481881,0.456093,0.685544,1
1924,0.536597,0.642165,0.288552,0.648378,0.581699,0.508619,0.446298,0.59909,0.390585,0
1925,0.458222,0.525935,0.311776,0.508282,0.581699,0.608973,0.529557,0.501335,0.874079,1
1926,0.504281,0.476522,0.643016,0.64494,0.432878,0.592435,0.329329,0.609349,0.283596,1
1927,0.505771,0.479973,0.416742,0.542881,0.581699,0.226646,0.30798,0.335361,0.039667,0
1928,0.530364,0.569673,0.300265,0.554403,0.537406,0.275333,0.538113,0.761527,0.209638,0
1929,0.481616,0.586834,0.249039,0.555801,0.630775,0.397598,0.449091,0.563574,0.664525,0
1930,0.54878,0.617925,0.506181,0.600365,0.581699,0.722589,0.382921,0.620076,0.395676,1
1931,0.502976,0.474637,0.412089,0.502603,0.532436,0.361725,0.358509,0.588326,0.31192,0
1932,0.513234,0.59868,0.415789,0.609825,0.635937,0.443814,0.257864,0.607348,0.285338,0
1933,0.471235,0.523611,0.405844,0.54345,0.757717,0.559664,0.478751,0.643443,0.542315,1
1934,0.49349,0.498789,0.273279,0.473765,0.631608,0.442183,0.368312,0.621711,0.613339,0
1935,0.505771,0.443769,0.606711,0.600848,0.317863,0.477495,0.629184,0.509334,0.401539,1
1936,0.505771,0.429686,0.184643,0.6242,0.581699,0.328413,0.199305,0.535031,0.407088,0
1937,0.448707,0.409423,0.275412,0.499302,0.500224,0.424864,0.466474,0.328908,0.568676,0
1938,0.502625,0.591011,0.221512,0.62828,0.606477,0.538702,0.483674,0.555365,0.347017,0
1939,0.525922,0.484003,0.330179,0.494152,0.581699,0.447498,0.286405,0.554081,0.340223,0
1940,0.526363,0.546886,0.458263,0.669097,0.456209,0.424878,0.61137,0.250372,0.239211,1
1941,0.550579,0.513493,0.248501,0.367586,0.550391,0.597296,0.532191,0.458761,0.651659,0
1942,0.464579,0.450831,0.337105,0.575577,0.434921,0.311226,0.432003,0.672423,0.746195,1
1943,0.584709,0.702041,0.382892,0.489976,0.538842,0.399879,0.418004,0.455745,0.400254,0
1944,0.439228,0.374083,0.332896,0.513105,0.581699,0.437464,0.407256,0.516436,0.534244,0
1945,0.505746,0.541281,0.601677,0.675913,0.469606,0.609537,0.44529,0.689906,0.229712,1
1946,0.473459,0.608699,0.291241,0.515052,0.581699,0.337446,0.360961,0.626331,0.369688,0
1947,0.33605,0.409079,0.078933,0.620827,0.649748,0.285403,0.460518,0.272188,0.502916,0
1948,0.569779,0.679553,0.246935,0.42145,0.70499,0.755693,0.459436,0.390858,0.624619,0
1949,0.486403,0.479838,0.569403,0.652054,0.581699,0.3138,0.438059,0.583959,0.327813,1
1950,0.505771,0.47246,0.328452,0.430338,0.638089,0.171688,0.45074,0.355381,0.488234,0
1951,0.497693,0.470176,0.370504,0.475846,0.529167,0.570606,0.501457,0.284188,0.637103,1
1952,0.460325,0.432378,0.40283,0.715488,0.449996,0.5211,0.325558,0.526661,0.397411,1
1953,0.44841,0.370454,0.253348,0.618845,0.535469,0.741292,0.498788,0.664969,0.71942,0
1954,0.505771,0.433422,0.342645,0.488296,0.445698,0.400806,0.501556,0.607302,0.199558,0
1955,0.643883,0.645414,0.799409,0.442321,0.476183,0.462151,0.538472,0.674605,0.586012,1
1956,0.555833,0.614276,0.570297,0.581777,0.504625,0.464596,0.322205,0.293149,0.637733,1
1957,0.434597,0.391159,0.443126,0.584355,0.581699,0.446798,0.400671,0.532673,0.538497,1
1958,0.511053,0.54668,0.531309,0.674807,0.43777,0.612247,0.67457,0.658669,0.60124,1
1959,0.482058,0.431492,0.363742,0.668761,0.535807,0.605002,0.406869,0.444567,0.352148,0
1960,0.580591,0.666452,0.322358,0.374704,0.625137,0.357759,0.491114,0.507885,0.610464,0
1961,0.505771,0.572389,0.366011,0.480142,0.390987,0.229997,0.361058,0.224423,0.478067,0
1962,0.452549,0.423075,0.431375,0.550235,0.594918,0.744272,0.487707,0.911156,0.591579,1
1963,0.42432,0.465032,0.276755,0.787384,0.508472,0.387165,0.496245,0.597235,0.481749,0
1964,0.54392,0.720365,0.54226,0.616089,0.615881,0.462147,0.328111,0.792058,0.291318,1
1965,0.479875,0.544758,0.340239,0.491481,0.590968,0.804468,0.511667,0.510671,0.574571,1
1966,0.490454,0.501282,0.224253,0.523791,0.700036,0.49147,0.574521,0.598885,0.547581,0
1967,0.505771,0.344027,0.342948,0.716296,0.581699,0.434034,0.539951,0.472367,0.217719,0
1968,0.53956,0.597886,0.229836,0.425911,0.664296,0.470487,0.612126,0.532673,0.552952,0
1969,0.526191,0.677454,0.249995,0.587037,0.667856,0.370319,0.496612,0.519173,0.36764,0
1970,0.469126,0.508663,0.325675,0.543758,0.581699,0.365375,0.389038,0.68534,0.448937,0
1971,0.452403,0.500574,0.298579,0.486942,0.647589,0.324082,0.54558,0.616787,0.47873,0
1972,0.420887,0.333453,0.175435,0.388258,0.59747,0.46342,0.320577,0.721673,0.352016,0
1973,0.565574,0.543816,0.370703,0.620897,0.472547,0.308841,0.412176,0.575655,0.366063,0
1974,0.467795,0.532641,0.116439,0.429353,0.641482,0.313982,0.362919,0.459014,0.561743,0
1975,0.486057,0.640438,0.277067,0.529207,0.69684,0.285446,0.507946,0.482009,0.642336,0
1976,0.505771,0.564479,0.324846,0.652081,0.631581,0.28774,0.358479,0.504726,0.615291,0
1977,0.512584,0.576233,0.418249,0.582601,0.546214,0.531199,0.512447,0.392773,0.622607,1
1978,0.506078,0.577618,0.353037,0.433499,0.581699,0.360464,0.5931,0.440406,0.469435,0
1979,0.514407,0.363736,0.607295,0.416865,0.426566,0.37508,0.426288,0.510205,0.460059,1
1980,0.555432,0.609745,0.633341,0.580248,0.605807,0.293687,0.150369,0.528103,0.751739,1
1981,0.505771,0.588773,0.326621,0.445642,0.553328,0.625995,0.692682,0.584099,0.531006,1
1982,0.503325,0.293989,0.496646,0.320714,0.433839,0.291647,0.495862,0.465831,0.268335,1
1983,0.505771,0.552841,0.202187,0.589776,0.578402,0.196465,0.422128,0.436563,0.572996,0
1984,0.552349,0.51535,0.766782,0.616417,0.449072,0.675409,0.489657,0.571695,0.389625,1
1985,0.447629,0.509255,0.447512,0.688031,0.550855,0.167116,0.424914,0.476354,0.416496,0
1986,0.473589,0.411649,0.365099,0.387741,0.59549,0.411665,0.520808,0.426231,0.705465,1
1987,0.483974,0.387899,0.249637,0.448699,0.607993,0.728319,0.571592,0.449336,0.296378,0
1988,0.505771,0.570583,0.416374,0.597119,0.538809,0.227594,0.696431,0.553963,0.543351,1
1989,0.583214,0.837559,0.471615,0.598115,0.583904,0.355506,0.582629,0.514942,0.512856,1
1990,0.555268,0.740068,0.350829,0.457371,0.755867,0.304879,0.464542,0.542311,0.48988,0
1991,0.521082,0.489585,0.219768,0.433337,0.487481,0.425221,0.607796,0.593037,0.681812,0
1992,0.505771,0.29907,0.140971,0.50692,0.564018,0.601094,0.592238,0.255126,0.452281,0
1993,0.546967,0.665192,0.570307,0.571805,0.667925,0.217091,0.623808,0.579798,0.631977,1
1994,0.547485,0.638925,0.327368,0.550561,0.631085,0.574553,0.45997,0.587809,0.762278,1
1995,0.505771,0.589187,0.325024,0.515778,0.685689,0.275371,0.35029,0.409061,0.4102,0
1996,0.557173,0.592104,0.321024,0.542675,0.581699,0.467094,0.184856,0.446735,0.358463,0
1997,0.518862,0.613694,0.313452,0.515104,0.581699,0.210664,0.651762,0.543351,0.474623,0
1998,0.538879,0.593485,0.558866,0.611726,0.672704,0.465214,0.62657,0.482101,0.428076,1
1999,0.553555,0.660367,0.35586,0.579015,0.543818,0.379571,0.613139,0.327159,0.542104,0
2000,0.531573,0.534407,0.562254,0.637287,0.471085,0.29483,0.642223,0.642699,0.273143,1
2001,0.468518,0.425126,0.498131,0.665383,0.407704,0.615712,0.335567,0.672749,0.523032,1
2002,0.502503,0.627765,0.318942,0.52504,0.690033,0.620258,0.502047,0.544886,0.587451,0
2003,0.562906,0.647722,0.314679,0.45844,0.645791,0.508666,0.375297,0.440453,0.40272,0
2004,0.535598,0.686572,0.351613,0.488185,0.790591,0.205838,0.710255,0.548233,0.527934,0
2005,0.505771,0.556918,0.203256,0.576265,0.755873,0.494075,0.493844,0.510186,0.436018,0
2006,0.467015,0.607783,0.197179,0.543882,0.740893,0.496397,0.762046,0.193042,0.373656,0
2007,0.455235,0.484334,0.282105,0.479032,0.678158,0.402368,0.360101,0.532673,0.583874,0
2008,0.411177,0.451735,0.127506,0.544237,0.571353,0.456887,0.35114,0.772018,0.482526,0
2009,0.494147,0.513185,0.225453,0.457158,0.581699,0.274258,0.600004,0.535437,0.400132,0
2010,0.629536,0.685406,0.662714,0.489767,0.49578,0.169397,0.474178,0.585214,0.527975,1
2011,0.525829,0.668722,0.473659,0.593182,0.699079,0.363357,0.44648,0.314734,0.435165,1
2012,0.655399,0.849362,0.780412,0.624523,0.527749,0.421143,0.297668,0.513804,0.285439,1
2013,0.505771,0.527075,0.52586,0.657427,0.406456,0.700343,0.436132,0.51677,0.47317,1
2014,0.46792,0.356827,0.406347,0.419912,0.443765,0.328979,0.247309,0.532673,0.638084,1
2015,0.465061,0.639948,0.243427,0.572644,0.739683,0.446907,0.378737,0.418629,0.524789,0
2016,0.524788,0.551999,0.307888,0.423862,0.590842,0.405223,0.393965,0.454772,0.538454,0
2017,0.579425,0.61603,0.621669,0.540284,0.519586,0.174143,0.414863,0.631534,0.563575,1
2018,0.505771,0.687912,0.576514,0.56874,0.716806,0.320969,0.431183,0.265304,0.449222,1
2019,0.427501,0.376975,0.325656,0.577009,0.414963,0.519094,0.605987,0.797677,0.437531,0
2020,0.505771,0.599485,0.415483,0.644868,0.595583,0.260151,0.339189,0.517061,0.523582,0
2021,0.505771,0.412079,0.414778,0.504494,0.581699,0.500117,0.456151,0.418567,0.579349,1
2022,0.459552,0.47089,0.328378,0.471774,0.693269,0.338448,0.363396,0.494003,0.414349,0
2023,0.483578,0.559388,0.419771,0.705717,0.564211,0.590874,0.594648,0.724691,0.709673,1
2024,0.566284,0.643069,0.444635,0.51063,0.608715,0.235075,0.457361,0.25718,0.642326,1
2025,0.524202,0.66214,0.201662,0.440195,0.631533,0.33116,0.658595,0.642807,0.485359,0
2026,0.505597,0.547642,0.268079,0.514998,0.623662,0.508504,0.576614,0.477786,0.342875,0
2027,0.482262,0.469223,0.520793,0.59334,0.581699,0.499537,0.345399,0.379634,0.432062,1
2028,0.553152,0.565719,0.346139,0.569177,0.580094,0.424659,0.565127,0.386808,0.408822,0
2029,0.540028,0.637669,0.236727,0.499382,0.690363,0.524357,0.256721,0.498096,0.530876,0
2030,0.559329,0.601458,0.303753,0.479304,0.53283,0.391347,0.562161,0.447565,0.397347,0
2031,0.481924,0.387752,0.407454,0.637488,0.414407,0.259854,0.528109,0.561448,0.384862,0
2032,0.467306,0.35773,0.58524,0.643967,0.581699,0.511532,0.734344,0.433137,0.443194,1
2033,0.610692,0.687106,0.287448,0.344444,0.602324,0.422528,0.502423,0.650592,0.300438,0
2034,0.535703,0.667799,0.363373,0.584658,0.581699,0.348889,0.465067,0.532673,0.607652,0
2035,0.411698,0.492004,0.356363,0.67326,0.581699,0.341164,0.319824,0.507551,0.340934,0
2036,0.519776,0.429341,0.493807,0.585803,0.434328,0.514397,0.387976,0.670619,0.876115,1
2037,0.535235,0.612821,0.150139,0.359728,0.603529,0.559337,0.346648,0.423597,0.434628,0
2038,0.436859,0.4037,0.363839,0.63523,0.581699,0.485276,0.509398,0.532673,0.479166,0
2039,0.37335,0.289038,0.124558,0.501756,0.586488,0.513848,0.403257,0.638331,0.697307,0
2040,0.505771,0.756357,0.242604,0.636432,0.661793,0.507107,0.473982,0.320856,0.336158,0
2041,0.458617,0.481918,0.422183,0.732573,0.511199,0.509883,0.594804,0.461283,0.31952,1
2042,0.547787,0.573697,0.18485,0.306167,0.645218,0.395618,0.330615,0.669353,0.593593,0
2043,0.509147,0.522209,0.408933,0.489694,0.540438,0.415874,0.408635,0.630612,0.578672,1
2044,0.505771,0.223019,0.232413,0.395003,0.432344,0.578374,0.49095,0.697161,0.462388,0
2045,0.472525,0.478101,0.428066,0.701148,0.581699,0.550625,0.405617,0.62894,0.567866,1
2046,0.464634,0.405344,0.214791,0.517126,0.474609,0.312124,0.514822,0.509292,0.434571,0
2047,0.532795,0.535368,0.539395,0.563552,0.581699,0.616731,0.579849,0.305285,0.396058,1
2048,0.505771,0.632014,0.524553,0.65857,0.497007,0.307549,0.406887,0.410802,0.634303,1
2049,0.506861,0.631416,0.277789,0.691152,0.55,0.456511,0.550812,0.627802,0.630674,0
2050,0.499246,0.545006,0.194229,0.59743,0.602505,0.213537,0.464785,0.56886,0.454348,0
2051,0.505771,0.498054,0.525525,0.629713,0.465693,0.761833,0.235575,0.411474,0.764451,1
2052,0.592695,0.634782,0.32836,0.545586,0.477625,0.336859,0.520277,0.752124,0.513539,0
2053,0.274747,0.596046,0.23586,0.56406,0.562201,0.331875,0.749623,0.284301,0.32018,0
2054,0.505771,0.462421,0.470721,0.337253,0.819077,0.5025,0.299549,0.426807,0.419561,1
2055,0.670001,0.431053,0.527869,0.547204,0.581699,0.554034,0.40536,0.454766,0.589195,1
2056,0.642741,0.441784,0.352494,0.59267,0.581699,0.44668,0.613877,0.588015,0.57987,0
2057,0.406456,0.702899,0.225968,0.42168,0.46719,0.553981,0.864191,0.567822,0.29091,0
2058,0.52154,0.472378,0.379605,0.685324,0.560436,0.51933,0.452237,0.441704,0.250513,0
2059,0.502263,0.557035,0.397161,0.427888,0.773424,0.332482,0.407924,0.717613,0.561956,0
2060,0.31062,0.543521,0.156422,0.818704,0.581699,0.199815,0.680392,0.657205,0.550378,0
2061,0.378157,0.677711,0.434935,0.255136,0.683487,0.681097,0.405202,0.356458,0.391842,1
2062,0.518424,0.509023,0.394596,0.535754,0.581699,0.288197,0.333063,0.493446,0.5326,0
2063,0.660749,0.496968,0.368242,0.551833,0.698826,0.445932,0.505861,0.357377,0.481441,0
2064,0.691462,0.551701,0.535173,0.452118,0.581699,0.48931,0.532938,0.614998,0.25446,1
2065,0.505771,0.498969,0.31924,0.559929,0.581699,0.195842,0.41127,0.532673,0.296462,0
2066,0.481518,0.541913,0.381649,0.566934,0.529995,0.557234,0.36257,0.251825,0.38778,1
2067,0.48655,0.776075,0.243465,0.524783,0.581699,0.378246,0.37523,0.531548,0.345057,0
2068,0.497639,0.636429,0.412439,0.550433,0.581699,0.814652,0.582041,0.308243,0.549618,1
2069,0.531864,0.477761,0.286381,0.745559,0.566596,0.319398,0.413122,0.391956,0.283354,0
2070,0.443618,0.525168,0.312104,0.660735,0.581699,0.384535,0.614004,0.491118,0.333168,0
2071,0.524396,0.508685,0.344013,0.581761,0.581699,0.263353,0.561009,0.440372,0.486981,0
2072,0.503671,0.507765,0.247962,0.66689,0.603819,0.665036,0.462858,0.532673,0.325599,0
2073,0.474472,0.649623,0.220163,0.681704,0.36491,0.163656,0.405334,0.532673,0.445778,0
2074,0.724735,0.706294,0.399446,0.348444,0.619462,0.292031,0.590605,0.58626,0.573181,1
2075,1,0.682811,0.388926,0.413544,0.716124,0.48834,0.431132,0.585107,0.325391,0
2076,0.604967,0.294488,0.245494,0.812018,0.581699,0.65027,0.564401,0.559773,0.510409,0
2077,0.431658,0.376204,0.392179,0.631082,0.581699,0.401193,0.302109,0.866836,0.519328,1
2078,0.417223,0.533874,0.285702,0.414426,0.799245,0.772008,0.59117,0.749077,0.527049,0
2079,0.579619,0.68577,0.43198,0.462997,0.414995,0.55172,0.627913,0.467097,0.227755,1
2080,0.398937,0.348481,0.359795,0.69674,0.680019,0.447035,0.359204,0.419321,0.51018,0
2081,0.421714,0.539888,0.31324,0.570638,0.566057,0.249296,0.624727,0.619979,0.448104,0
2082,0.73458,0.732311,0.376613,0.233211,0.441456,0.502541,0.114501,0.542622,0.263686,1
2083,0.684159,0.574252,0.53787,0.415487,0.646814,0.265076,0.566474,0.553034,0.372327,1
2084,0.506774,0.335428,0.306285,0.565163,0.835285,0.606413,0.626673,0.550945,0.411885,0
2085,0.505771,0.592374,0.195519,0.516554,0.733995,0.420634,0.478193,0.621313,0.201696,0
2086,0.691947,0.517719,0.302623,0.526106,0.581699,0.488908,0.264631,0.515084,0.30929,0
2087,0.466246,0.484747,0.363233,0.792405,0.405825,0.296542,0.37534,0.532673,0.400299,0
2088,0.505771,0.530293,0.302633,0.652291,0.563419,0.518693,0.420418,0.421346,0.174596,0
2089,0.553198,0.585756,0.448677,0.412569,0.578994,0.37697,0.394107,0.587744,0.67429,1
2090,0.592087,0.52387,0.364582,0.597038,0.581699,0.194763,0.605505,0.582804,0.537153,0
2091,0.517804,0.639379,0.3939,0.551117,0.416505,0.219107,0.287251,0.620318,0.55048,1
2092,0.55315,0.624707,0.500585,0.504006,0.581699,0.390915,0.404551,0.564925,0.690903,1
2093,0.505771,0.604965,0.307123,0.570076,0.581699,0.419083,0.560373,0.599466,0.479653,0
2094,0.492162,0.501691,0.195335,0.600465,0.629655,0.372394,0.569536,0.696839,0.501172,0
2095,0.431956,0.664344,0.327675,0.70519,0.502162,0.265882,0.398232,0.442666,0.144967,0
2096,0.826341,0.527735,0.638909,0.666048,0.303938,0.493044,0.667746,0.655178,0.436999,1
2097,0.72606,0.532735,0.469487,0.544007,0.532696,0.170814,0.622694,0.505626,0.281279,0
2098,0.623022,0.354797,0.327313,0.806262,0.581699,0.75341,0.415837,0.763323,0.294817,0
2099,0.26555,0.493005,0.238404,0.718823,0.581699,0.196611,0.411582,0.903141,0.440586,0
2100,0.349591,0.497369,0.174064,0.556532,0.635826,0.274888,0.744242,0.732342,0.405557,0
2101,0.433656,0.329324,0.238589,0.605991,0.581699,0.36341,0.567951,0.80887,0.678074,0
2102,0.645183,0.394765,0.403515,0.570461,0.816777,0.281997,0.436765,0.50108,0.411446,0
2103,0.708122,0.408667,0.522263,0.450686,0.784862,0.629066,0.358097,0.367866,0.776076,1
2104,0.505771,0.429132,0.321779,0.542164,0.633368,0.4173,0.596784,0.367221,0.374002,0
2105,0.302087,0.581218,0.343042,0.508223,0.497897,0.536797,0.432545,0.52384,0.431677,0
2106,0.652532,0.673735,0.521857,0.500798,0.581699,0.331281,0.541562,0.551338,0.414764,1
2107,0.279041,0.382263,0.287931,0.548811,0.555017,0.281407,0.208322,0.604106,0.331782,0
2108,0.527432,0.365858,0.231455,0.683598,0.621997,0.23624,0.43272,0.471544,0.735108,0
2109,0.505771,0.483324,0.137451,0.651256,0.759959,0.617032,0.310337,0.705116,0.465797,0
2110,0.608878,0.342332,0.202561,0.854199,0.620026,0.359533,0.405746,0.558478,0.546996,0
2111,0.407581,0.5502,0.418589,0.472137,0.581699,0.528697,0.361594,0.638769,0.543845,1
2112,0.265369,0.550075,0.255801,0.642599,0.460483,0.332885,0.374467,0.532673,0.170796,0
2113,0.465703,0.492557,0.229266,0.629125,0.693382,0.548971,0.361627,0.469923,0.344543,0
2114,0.565046,0.518679,0.265007,0.399411,0.753644,0.197068,0.592286,0.662646,0.460693,0
2115,0.470533,0.593914,0.470713,0.667841,0.392586,0.565568,0.454203,0.553605,0.500443,1
2116,0.307145,0.619851,0.284354,0.561669,0.576185,0.42445,0.490641,0.562321,0.593014,0
2117,0.612567,0.608305,0.253796,0.562096,0.533929,0.311871,0.488302,0.638688,0.482535,0
2118,0.634638,0.354909,0.28405,0.619646,0.603577,0.184323,0.497882,0.337095,0.617161,0
2119,0.75034,0.349432,0.508967,0.577417,0.778209,0.541624,0.375626,0.607679,0.61096,1
2120,0.505771,0.622588,0.504444,0.50257,0.383207,0.402175,0.536741,0.568826,0.101081,1
2121,0.496194,0.604798,0.53567,0.401742,0.580744,0.240269,0.406512,0.121261,0.658912,1
2122,0.579078,0.60066,0.397511,0.460683,0.548523,0.587569,0.465595,0.479647,0.249417,1
2123,0.350636,0.41282,0.21666,0.614811,0.608769,0.618581,0.465751,0.573631,0.519272,0
2124,0.364212,0.543036,0.350733,0.579562,0.463742,0.425249,0.33439,0.409558,0.54522,0
2125,0.435221,0.585712,0.34702,0.723967,0.381937,0.485315,0.655048,0.245568,0.581123,1
2126,0.71671,0.602903,0.412311,0.379721,0.539754,0.316124,0.451895,0.545852,0.274444,0
2127,0.641357,0.600887,0.30719,0.386655,0.533875,0.510033,0.524562,0.530164,0.606224,0
2128,0.393911,0.657632,0.575026,0.312689,0.581699,0.602646,0.487777,0.373534,0.254899,1
2129,0.505771,0.556447,0.335309,0.513032,0.385317,0.470182,0.306864,0.565929,0.446004,0
2130,0.480806,0.659058,0.241965,0.373175,0.530863,0.458985,0.443777,0.612807,0.518148,0
2131,0.513712,0.65645,0.247504,0.551593,0.584545,0.198356,0.449513,0.405724,0.501554,0
2132,0.505771,0.518516,0.495896,0.471503,0.73479,0.350739,0.651162,0.591584,0.659556,1
2133,0.509122,0.457968,0.311768,0.483866,0.691807,0.199179,0.194383,0.714356,0.367968,0
2134,0.402289,0.566932,0.312365,0.602411,0.387316,0.921106,0.519243,0.555385,0.389863,1
2135,0.505771,0.495437,0.214104,0.697194,0.585432,0.500054,0.665974,0.64372,0.559852,0
2136,0.568216,0.714435,0.526785,0.232176,0.507466,0.441417,0.538486,0.543093,0.473798,1
2137,0.555361,0.535912,0.361355,0.450343,0.817966,0.332481,0.335792,0.532673,0.614385,0
2138,0.369167,0.576142,0.28886,0.85229,0.581699,0.308141,0.103559,0.578822,0.452101,0
2139,0.54768,0.420447,0.405777,0.61891,0.569828,0.437842,0.531743,0.716812,0.59901,1
2140,0.519454,0.658906,0.264075,0.566556,0.407001,0.589526,0.600726,0.538417,0.481486,0
2141,0.263709,0.562512,0.149719,0.782123,0.523076,0.633377,0.507134,0.523009,0.45313,0
2142,0.505771,0.630033,0.44064,0.588958,0.413767,0.508189,0.519518,0.283724,0.612395,1
2143,0.549466,0.628916,0.432893,0.621073,0.485636,0.669821,0.446811,0.618828,0.58091,1
2144,0.58268,0.68523,0.453324,0.458057,0.55769,0.577247,0.428413,0.64861,0.570889,1
2145,0.513412,0.495932,0.505774,0.471686,0.63607,0.5085,0.483061,0.496713,0.441316,1
2146,0.406397,0.561978,0.281953,0.404568,0.72777,0.520678,0.746857,0.532673,0.431494,0
2147,0.62563,0.543299,0.316079,0.559016,0.704025,0.589135,0.650802,0.284338,0.392809,0
2148,0.701018,0.472557,0.496747,0.472949,0.581699,0.621197,0.388468,0.369303,0.542169,1
2149,0.712091,0.687691,0.437127,0.409924,0.583262,0.345635,0.414107,0.693215,0.414706,1
2150,0.505771,0.47779,0.294898,0.588875,0.560141,0.377256,0.277332,0.463347,0.247279,0
2151,0.653509,0.418044,0.347126,0.741188,0.581699,0.559724,0.515979,0.672986,0.634457,0
2152,0.505771,0.358437,0.415432,0.544481,0.581699,0.494354,0.235819,0.553809,0.403268,1
2153,0.417201,0.40063,0.258862,0.712798,0.421953,0.644658,0.370513,0.417883,0.680557,0
2154,0.505771,0.589503,0.30124,0.321037,0.620916,0.521243,0.532298,0.552167,0.439039,0
2155,0.355834,0.629393,0.339327,0.597547,0.294147,0.335994,0.384489,0.366796,0.57197,1
2156,0.38738,0.502268,0.290609,0.473507,0.904518,0.263293,0.211331,0.540278,0.71368,0
2157,0.345612,0.70261,0.295659,0.551956,0.308261,0.303907,0.402964,0.605704,0.591865,0
2158,0.564575,0.617862,0.381817,0.558984,0.426516,0.641193,0.311477,0.522809,0.319017,1
2159,0.481719,0.402996,0.262429,0.530874,0.581699,0.582775,0.273329,0.306699,0.394049,0
2160,0.618855,0.578512,0.479924,0.444483,0.596631,0.259202,0.265897,0.511332,0.423377,1
2161,0.297222,0.487154,0.418585,0.640519,0.477911,0.380878,0.273691,0.372378,0.513943,1
2162,0.608284,0.598032,0.463542,0.538033,0.606777,0.280238,0.260676,0.486664,0.135315,0
2163,0.714272,0.608204,0.544133,0.457309,0.67294,0.336539,0.444139,0.625774,0.228772,1
2164,0.502721,0.571258,0.398746,0.604944,0.431058,0.32239,0.329791,0.48007,0.527075,1
2165,0.200255,0.503068,0.190456,0.648926,0.578769,0.465343,0.623838,0.705485,0.385695,0
2166,0.426614,0.504314,0.374405,0.521374,0.581699,0.462939,0.546184,0.51882,0.702391,1
2167,0.58434,0.47389,0.415441,0.565329,0.746862,0.300814,0.672391,0.596756,0.452907,0
2168,0.500732,0.416012,0.428106,0.490849,0.581699,0.687403,0.38613,0.412866,0.345813,1
2169,0.584278,0.767051,0.278636,0.378271,0.581699,0.442453,0.406629,0.408542,0.538048,0
2170,0.505771,0.417425,0.399333,0.541336,0.573545,0.407735,0.359515,0.593923,0.333851,0
2171,0.490366,0.614136,0.216859,0.41225,0.776391,0.650743,0.516964,0.694781,0.473654,0
2172,0.567915,0.361584,0.336697,0.694648,0.581699,0.513012,0.326216,0.482854,0.584928,0
2173,0.505771,0.568846,0.426898,0.437221,0.581699,0.53473,0.697617,0.564672,0.350839,1
2174,0.684371,0.637901,0.459261,0.415924,0.581699,0.379456,0.350604,0.355634,0.468742,1
2175,0.519625,0.535692,0.347679,0.486817,0.658175,0.414245,0.351822,0.653061,0.533481,0
2176,0.505771,0.774099,0.188532,0.38424,0.588132,0.424186,0.387699,0.563558,0.258286,0
2177,0.573341,0.442167,0.309452,0.605049,0.785521,0.295691,0.497224,0.545715,0.432215,0
2178,0.562825,0.445276,0.602237,0.459117,0.616604,0.58772,0.523823,0.553075,0.494655,1
2179,0.460641,0.68928,0.302354,0.410792,0.581699,0.093657,0.358064,0.454134,0.436628,0
2180,0.370672,0.449077,0.196514,0.816791,0.48925,0.559711,0.386373,0.435949,0.647811,0
2181,0.467006,0.544072,0.257086,0.553655,0.411099,0.473375,0.627776,0.624627,0.698383,0
2182,0.422558,0.537963,0.198844,0.493903,0.715067,0.325903,0.731826,0.727368,0.579164,0
2183,0.581178,0.496205,0.487814,0.458967,0.694976,0.383186,0.501486,0.300572,0.520738,1
2184,0.505771,0.509414,0.479617,0.597185,0.413298,0.503006,0.535219,0.63432,0.59307,1
2185,0.46384,0.572082,0.320171,0.469117,0.481151,0.526549,0.381791,0.719928,0.65436,1
2186,0.505771,0.572764,0.407541,0.413894,0.47465,0.606437,0.410403,0.558069,0.65132,1
2187,0.498386,0.57358,0.259087,0.405111,0.688468,0.61354,0.312129,0.582791,0.733141,0
2188,0.392089,0.316035,0.25709,0.716427,0.673846,0.414715,0.409871,0.462777,0.479677,0
2189,0.182722,0.362936,0.344719,0.688081,0.519995,0.393258,0.357075,0.669627,0.25851,0
2190,0.522294,0.552722,0.23347,0.663437,0.417913,0.534223,0.577458,0.563009,0.694625,0
2191,0.611007,0.523325,0.521976,0.607699,0.467731,0.590112,0.243969,0.465062,0.399624,1
2192,0.478888,0.367838,0.213576,0.529665,0.581699,0.388098,0.712428,0.564717,0.367807,0
2193,0.505771,0.534245,0.295916,0.568285,0.581699,0.242844,0.388247,0.603405,0.579566,0
2194,0.57345,0.570752,0.329811,0.327169,0.787798,0.58422,0.741719,0.566348,0.466249,0
2195,0.505771,0.437483,0.299533,0.642674,0.614166,0.415571,0.622984,0.478349,0.285958,0
2196,0.615487,0.65773,0.308759,0.521767,0.564993,0.35331,0.481198,0.328876,0.592658,0
2197,0.676224,0.441734,0.542545,0.634715,0.531091,0.469067,0.314053,0.597012,0.324104,1
2198,0.485264,0.652154,0.23231,0.635578,0.413159,0.31349,0.659086,0.320882,0.637731,0
2199,0.505771,0.661221,0.36324,0.4188,0.545379,0.362934,0.509638,0.271845,0.45399,0
2200,0.505771,0.511306,0.353893,0.531458,0.794976,0.760043,0.259555,0.478412,0.505434,0
2201,0.391861,0.505142,0.267924,0.740178,0.581699,0.305073,0.385221,0.532673,0.587579,0
2202,0.360768,0.523375,0.294405,0.607915,0.440914,0.336197,0.607105,0.739189,0.468953,0
2203,0.446151,0.550132,0.438057,0.583641,0.477014,0.519817,0.571955,0.68197,0.624912,1
2204,0.581595,0.632301,0.484142,0.662869,0.218547,0.65606,0.327119,0.47683,0.615403,1
2205,0.489493,0.401346,0.19035,0.570095,0.730526,0.510895,0.564727,0.502649,0.594585,0
2206,0.62871,0.647329,0.383183,0.164901,0.793732,0.464291,0.465165,0.341248,0.438614,1
2207,0.505771,0.55452,0.411042,0.52863,0.498957,0.372054,0.531317,0.625278,0.34598,1
2208,0.59884,0.397254,0.354692,0.571807,0.711704,0.320553,0.366819,0.503949,0.403807,0
2209,0.462581,0.610427,0.342242,0.57072,0.623454,0.233614,0.434605,0.368573,0.489994,0
2210,0.706754,0.294364,0.428775,0.659626,0.627072,0.523178,0.264591,0.524,0.598891,1
2211,0.343431,0.503201,0.308624,0.524653,0.654506,0.692492,0.233881,0.587489,0.406081,0
2212,0.755566,0.836456,0.465161,0.190506,0.710954,0.267073,0.490877,0.522966,0.302819,1
2213,0.450355,0.731434,0.340285,0.399552,0.581699,0.267015,0.493835,0.422301,0.523975,0
2214,0.558749,0.584728,0.361012,0.430397,0.792895,0.561862,0.533936,0.483977,0.450999,0
2215,0.57067,0.524151,0.269691,0.642695,0.521943,0.437209,0.466328,0.626235,0.41572,0
2216,0.690843,0.3017,0.490913,0.701146,0.685437,0.402892,0.606284,0.611881,0.4623,1
2217,0.424376,0.480692,0.430851,0.504993,0.581699,0.43802,0.476337,0.605994,0.146979,0
2218,0.398197,0.516042,0.18375,0.655105,0.570802,0.262034,0.606015,0.530988,0.552431,0
2219,0.543608,0.585384,0.561808,0.410851,0.49083,0.505818,0.51605,0.280922,0.613012,1
2220,0.507318,0.710869,0.380456,0.347612,0.43844,0.279711,0.531524,0.364227,0.305447,0
2221,0.368053,0.500233,0.416193,0.584538,0.538166,0.469408,0.616919,0.394315,0.452378,1
2222,0.521533,0.574155,0.385146,0.612757,0.580459,0.608788,0.388977,0.326898,0.471301,1
2223,0.436066,0.702754,0.217036,0.443331,0.586303,0.318522,0.431283,0.488275,0.507077,0
2224,0.42867,0.505827,0.365051,0.629345,0.574424,0.460616,0.08685,0.529091,0.489075,0
2225,0.505771,0.383047,0.462745,0.631976,0.581699,0.288231,0.495734,0.38655,0.450158,1
2226,0.563263,0.58177,0.197659,0.549954,0.602161,0.555868,0.453839,0.786042,0.752571,0
2227,0.505771,0.407705,0.387419,0.503294,0.682395,0.509642,0.447963,0.689756,0.266154,0
2228,0.548506,0.571029,0.34823,0.613182,0.581699,0.461455,0.540619,0.626973,0.328384,0
2229,0.505771,0.422665,0.315172,0.534386,0.752323,0.710591,0.484394,0.553852,0.514261,0
2230,0.742282,0.780979,0.636975,0.223388,0.445212,0.510319,0.425314,0.523931,0.817114,1
2231,0.479633,0.685947,0.539784,0.360588,0.57519,0.387268,0.484336,0.532673,0.594397,1
2232,0.524975,0.681118,0.33038,0.534308,0.581699,0.216721,0.407322,0.733029,0.455981,0
2233,0.505771,0.539192,0.368191,0.5754,0.558129,0.376966,0.723816,0.415384,0.42789,0
2234,0.524653,0.561287,0.274386,0.458758,0.660285,0.732368,0.578534,0.716684,0.538475,0
2235,0.724792,0.472953,0.333655,0.423307,0.581699,0.535788,0.547407,0.388206,0.255141,0
2236,0.455766,0.792854,0.343643,0.352433,0.648356,0.308995,0.950449,0.480276,0.582723,0
2237,0.567189,0.48728,0.255111,0.508647,0.581699,0.70532,0.321461,0.658915,0.752852,0
2238,0.505771,0.545107,0.507841,0.461873,0.581699,0.246099,0.462518,0.599587,0.464459,1
2239,0.556195,0.525034,0.45588,0.532755,0.570145,0.255127,0.324956,0.419249,0.096706,0
2240,0.451646,0.653345,0.396383,0.462617,0.581699,0.382024,0.602017,0.571248,0.623828,1
2241,0.505771,0.44564,0.233629,0.586724,0.757025,0.533145,0.444352,0.41114,0.44319,0
2242,0.47469,0.445561,0.379455,0.525602,0.581699,0.580355,0.692133,0.63412,0.514399,1
2243,0.42961,0.573288,0.376764,0.679747,0.438429,0.332109,0.561826,0.586392,0.233706,0
2244,0.720484,0.516157,0.283248,0.512151,0.581699,0.411216,0.278841,0.747628,0.545306,0
2245,0.369016,0.320213,0.19274,0.64854,0.581699,0.316046,0.344274,0.61113,0.597149,0
2246,0.398086,0.659225,0.251078,0.297918,0.722895,0.39797,0.327659,0.511273,0.406433,0
2247,0.678183,0.75121,0.462534,0.451006,0.581699,0.768541,0.621378,0.52498,0.412386,1
2248,0.645465,0.550941,0.35095,0.43978,0.628308,0.187153,0.429134,0.586718,0.796367,0
2249,0.314322,0.260806,0.308329,0.892517,0.581699,0.25691,0.487054,0.394432,0.484176,0
2250,0.498242,0.574947,0.367199,0.436459,0.497255,0.45515,0.433642,0.626644,0.658245,1
2251,0.477696,0.409257,0.286766,0.572084,0.581699,0.116173,0.583889,0.698664,0.777082,0
2252,0.490537,0.490548,0.327163,0.509986,0.573262,0.417672,0.603556,0.481339,0.640436,0
2253,0.439661,0.406568,0.319518,0.761613,0.514559,0.565917,0.558184,0.334713,0.445057,0
2254,0.59309,0.670976,0.266433,0.469004,0.488842,0.373965,0.444061,0.631847,0.461839,0
2255,0.61726,0.576404,0.644208,0.442102,0.458983,0.286794,0.479257,0.532673,0.371833,1
2256,0.505771,0.624763,0.359399,0.432332,0.581699,0.379524,0.356411,0.905991,0.291976,0
2257,0.524901,0.606778,0.532314,0.469591,0.542751,0.448643,0.520788,0.44319,0.396018,1
2258,0.540993,0.575904,0.256221,0.404905,0.581699,0.482906,0.358261,0.532673,0.55979,0
2259,0.561136,0.588772,0.320644,0.601712,0.486585,0.326923,0.625487,0.45838,0.510851,0
2260,0.505771,0.485896,0.305185,0.537248,0.559329,0.305465,0.482101,0.752078,0.484681,0
2261,0.271314,0.515744,0.298965,0.511644,0.758761,0.321389,0.500626,0.697236,0.639725,0
2262,0.505771,0.678583,0.307324,0.504416,0.550794,0.447654,0.609516,0.530538,0.390262,0
2263,0.80253,0.475765,0.54924,0.681882,0.5643,0.427351,0.604837,0.47256,0.699008,1
2264,0.456882,0.286765,0.325004,0.580175,0.84759,0.443806,0.370945,0.429339,0.566441,0
2265,0.505771,0.636756,0.524023,0.436216,0.589871,0.603807,0.292814,0.620662,0.483387,1
2266,0.373465,0.523163,0.402832,0.52165,0.591627,0.283051,0.525772,0.621256,0.328759,0
2267,0.46516,0.548194,0.34981,0.434059,0.739529,0.200709,0.26735,0.532673,0.75171,0
2268,0.559594,0.449258,0.420279,0.644806,0.506287,0.467039,0.54436,0.482258,0.393824,1
2269,0.527735,0.474849,0.207002,0.585385,0.581699,0.341002,0.609712,0.321786,0.453173,0
2270,0.430047,0.54422,0.167608,0.387738,0.816677,0.40312,0.295376,0.474023,0.712258,0
2271,0.599166,0.757374,0.270496,0.296792,0.581699,0.266609,0.330319,0.44176,0.454674,0
2272,0.598878,0.638017,0.445647,0.479433,0.636174,0.238798,0.323569,0.51493,0.380223,0
2273,0.528141,0.588291,0.289277,0.538688,0.581699,0.293299,0.43599,0.54692,0.441053,0
2274,0.505771,0.683218,0.355671,0.446911,0.574589,0.45419,0.403968,0.536758,0.575621,1
2275,0.598902,0.43326,0.486574,0.737857,0.506669,0.638267,0.581236,0.300966,0.422155,1
2276,0.506772,0.635018,0.488036,0.494091,0.581699,0.612871,0.534979,0.368021,0.49814,1
2277,0.468951,0.34154,0.206123,0.686105,0.601976,0.277154,0.571156,0.692261,0.148212,0
2278,0.455837,0.552076,0.330555,0.430273,0.581699,0.285238,0.553694,0.548223,0.606484,0
2279,0.538553,0.560507,0.433378,0.413726,0.581699,0.585583,0.489872,0.67173,0.521966,1
2280,0.759201,0.529581,0.225481,0.780938,0.562633,0.520966,0.455011,0.532439,0.697759,0
2281,0.659177,0.555977,0.433835,0.507347,0.59887,0.319077,0.457654,0.699422,0.639016,1
2282,0.751757,0.75715,0.519559,0.364384,0.453273,0.566359,0.396039,0.605258,0.546604,1
2283,0.505771,0.661278,0.367589,0.470426,0.53187,0.197045,0.532476,0.436901,0.632522,0
2284,0.43009,0.687519,0.321366,0.566412,0.44865,0.233944,0.380521,0.595388,0.487435,0
2285,0.505771,0.684724,0.566475,0.361205,0.662074,0.623428,0.646953,0.706325,0.440216,1
2286,0.426711,0.48863,0.434819,0.421604,0.767699,0.525336,0.268581,0.391032,0.521634,1
2287,0.444113,0.514742,0.243565,0.506257,0.505333,0.203337,0.374135,0.654287,0.385707,0
2288,0.505771,0.465744,0.599266,0.571308,0.54831,0.285442,0.563943,0.532673,0.392213,1
2289,0.652186,0.649173,0.32259,0.420492,0.732038,0.453013,0.365966,0.532673,0.725749,0
2290,0.505771,0.855946,0.342151,0.306749,0.353474,0.602436,0.179093,0.437361,0.478114,1
2291,0.435394,0.553566,0.264078,0.472806,0.673286,0.459852,0.529885,0.580582,0.539235,0
2292,0.442518,0.444591,0.268366,0.714789,0.581699,0.48191,0.54198,0.63792,0.319337,0
2293,0.415326,0.497329,0.47715,0.446124,0.623106,0.391946,0.634031,0.660777,0.507074,1
2294,0.482619,0.599255,0.357793,0.624674,0.41542,0.360366,0.458776,0.613161,0.517087,0
2295,0.505771,0.452242,0.431391,0.616849,0.581699,0.292659,0.217538,0.75096,0.397109,0
2296,0.454998,0.294477,0.219496,0.682178,0.581699,0.241845,0.222276,0.286135,0.373807,0
2297,0.471529,0.573789,0.317121,0.533951,0.61084,0.435555,0.382071,0.459333,0.477137,0
2298,0.40371,0.33232,0.266884,0.587543,0.74294,0.414542,0.4241,0.530076,0.457937,0
2299,0.54329,0.727658,0.234607,0.470024,0.549261,0.164085,0.364218,0.762905,0.592074,0
2300,0.212459,0.361696,0.279204,0.168031,0.750414,0.339118,0.406061,0.613937,0.251447,0
2301,0.505771,0.486523,0.311436,0.545836,0.581699,0.163,0.455686,0.454831,0.221104,0
2302,0.505771,0.669828,0.263638,0,0.310901,0.477515,0.213186,0.447329,0.563779,1
2303,0.579364,0.548932,0.572681,0.730598,0.581699,0.292883,0.646434,0.585205,0.418562,1
2304,0.508295,0.568057,0.407359,0.395355,0.463949,0.42409,0.407537,0.443499,0.466134,1
2305,0.377164,0.423028,0.219323,0.439874,0.581699,0.79461,0.368032,0.281481,0.450994,0
2306,0.505771,0.43408,0.493246,0.754468,0.662617,0.438127,0.297758,0.7646,0.358491,1
2307,0.70059,0.626125,0.555134,0.735871,0.297901,0.324487,0.432899,0.504748,0.573126,1
2308,0.505771,0.452616,0.43235,0.541658,0.587717,0.574523,0.444823,0.686697,0.575229,1
2309,0.572774,0.545368,0.374076,0.729774,0.550902,0.374664,0.426734,0.552581,0.328697,0
2310,0.471689,0.5785,0.234411,0.477506,0.531924,0.700569,0.395438,0.552762,0.369408,0
2311,0.460772,0.547934,0.306723,0.544379,0.586546,0.132067,0.441536,0.422859,0.345166,0
2312,0.447598,0.42059,0.456772,0.638493,0.704116,0.199685,0.296492,0.400949,0.281076,0
2313,0.505771,0.353887,0.261033,0.407911,0.712901,0.3376,0.341689,0.580493,0.653123,0
2314,0.368706,0.479537,0.301211,0.379188,0.772365,0.531299,0.454395,0.609142,0.542655,0
2315,0.498886,0.487048,0.293461,0.619319,0.687856,0.035211,0.34741,0.547246,0.369864,0
2316,0.485142,0.591152,0.495039,0.49021,0.561275,0.545057,0.681439,0.489868,0.276812,1
2317,0.593516,0.547368,0.394443,0.625559,0.425721,0.480969,0.51012,0.51684,0.436074,1
2318,0.361267,0.327385,0.179098,0.474318,1,0.697045,0.505376,0.350023,0.324057,0
2319,0.493448,0.593683,0.310379,0.471857,0.505928,0.249015,0.728294,0.577493,0.747886,0
2320,0.517386,0.510041,0.337512,0.634216,0.581699,0.343031,0.542428,0.575109,0.570417,0
2321,0.44032,0.513714,0.44316,0.50647,0.542429,0.596856,0.433049,0.429639,0.639823,1
2322,0.654357,0.703506,0.457259,0.50627,0.379433,0.67663,0.226857,0.385533,0.395638,1
2323,0.376991,0.432733,0.296901,0.346389,0.581699,0.289819,0.510576,0.50519,0.412669,0
2324,0.283982,0.320865,0.280922,0.46605,0.694503,0.284887,0.514341,0.548693,0.419139,0
2325,0.406087,0.388615,0.28416,0.494125,0.741682,0.249964,0.580559,0.540875,0.494641,0
2326,0.495261,0.617857,0.307113,0.216473,0.534234,0.466463,0.411633,0.617277,0.106018,0
2327,0.533178,0.651336,0.4308,0.415328,0.487715,0.263326,0.53076,0.226712,0.459553,1
2328,0.433703,0.618061,0.27652,0.248072,0.539832,0.753003,0.549511,0.519936,0.234753,0
2329,0.509722,0.504732,0.314936,0.606139,0.501178,0.305064,0.515139,0.593432,0.212553,0
2330,0.505771,0.488523,0.346966,0.494347,0.581699,0.368884,0.508222,0.481154,0.678014,1
2331,0.45204,0.52466,0.541734,0.524309,0.581699,0.539052,0.282068,0.462716,0.343327,1
2332,0.439328,0.442417,0.386987,0.54669,0.701079,0.33586,0.517407,0.385857,0.642375,1
2333,0.505771,0.573952,0.438773,0.288214,0.480679,0.584534,0.262741,0.383668,0.494879,1
2334,0.39344,0.525204,0.194006,0.381877,0.863622,0.391708,0.241848,0.439528,0.590169,0
2335,0.340079,0.372309,0.309922,0.593711,0.697318,0.382905,0.342228,0.555908,0.592058,0
2336,0.749339,0.629678,0.52164,0.960853,0.580404,0.388803,0.324284,0.707884,0.2717,0
2337,0.476867,0.52687,0.445735,0.427197,0.432936,0.20705,0.384583,0.367763,0.545783,1
2338,0.569522,0.689411,0.38086,0.391586,0.43912,0.520076,0.500368,0.429439,0.260184,1
2339,0.525153,0.583595,0.21991,0.615831,0.635882,0.271796,0.714423,0.557343,0.834656,0
2340,0.499343,0.636623,0.318399,0.386728,0.516681,0.154884,0.619242,0.532673,0.545026,0
2341,0.390597,0.482242,0.196777,0.398792,0.799531,0.362435,0.39667,0.485874,0.658625,0
2342,0.559708,0.577579,0.284412,0.609431,0.581699,0.513249,0.535141,0.546351,0.327825,0
2343,0.181294,0.193602,0.321016,0.364933,0.820951,0.418542,0.451375,0.691253,0.262828,0
2344,0.601649,0.383039,0.256195,0.841458,0.568508,0.436618,0.387802,0.421,0.474307,0
2345,0.544072,0.605648,0.484304,0.481945,0.481071,0.548145,0.425679,0.562298,0.444423,1
2346,0.544074,0.709333,0.285034,0.195991,0.481246,0.644396,0.30135,0.614749,0.538768,1
2347,0.38781,0.493331,0.245368,0.419783,0.752779,0.464092,0.589332,0.401818,0.308515,0
2348,0.505771,0.609592,0.298306,0.26668,0.470422,0.330135,0.165917,0.546495,0.592202,0
2349,0.39257,0.373977,0.295745,0.557317,0.817794,0.207875,0.386981,0.445951,0.652494,0
2350,0.363768,0.69755,0.460871,0.081321,0.367707,0.473582,0.445876,0.574176,0.60252,1
2351,0.446629,0.508312,0.449371,0.480464,0.573669,0.213361,0.462121,0.464172,0.278275,0
2352,0.481958,0.736284,0.39764,0.160155,0.651165,0.276049,0.504111,0.480706,0.364426,0
2353,0.474347,0.608029,0.265442,0.492394,0.499267,0.56945,0.37468,0.140167,0.616046,0
2354,0.505771,0.330418,0.288715,0.593135,0.768409,0.531494,0.592619,0.286546,0.75391,0
2355,0.521499,0.489734,0.473111,0.618475,0.581699,0.220246,0.250197,0.398804,0.594885,1
2356,0.392751,0.483848,0.348435,0.497463,0.63418,0.416238,0.420821,0.55302,0.307207,0
2357,0.40375,0.509261,0.419459,0.248275,0.59378,0.480496,0.509438,0.582558,0.644062,1
2358,0.440352,0.575311,0.369168,0.316777,0.581699,0.398479,0.563055,0.494782,0.514211,1
2359,0.560852,0.681581,0.237129,0.578472,0.595412,0.566891,0.370244,0.396395,0.709783,0
2360,0.515835,0.564532,0.219719,0.584862,0.633821,0.40366,0.533553,0.643514,0.323467,0
2361,0.469863,0.604712,0.40327,0.369406,0.581699,0.383415,0.452799,0.471385,0.650485,1
2362,0.561392,0.594428,0.515621,0.561072,0.52366,0.4406,0.525267,0.532673,0.576303,1
2363,0.433835,0.339126,0.188394,0.687,0.876762,0.404981,0.487925,0.383581,0.718296,0
2364,0.505771,0.583348,0.219601,0.323446,0.581699,0.468113,0.732,0.610908,0.453797,0
2365,0.457712,0.550251,0.462009,0.333599,0.57357,0.467553,0.362334,0.563222,0.284381,1
2366,0.617617,0.55862,0.529504,0.752043,0.581699,0.274568,0.423814,0.531319,0.356068,1
2367,0.513193,0.516251,0.213386,0.585544,0.709244,0.629215,0.394336,0.332286,0.463994,0
2368,0.495149,0.572764,0.315395,0.482971,0.581699,0.513635,0.516241,0.431746,0.564055,0
2369,0.441054,0.330374,0.3478,0.822567,0.595695,0.465712,0.461378,0.251237,0.211013,0
2370,0.681447,0.640652,0.514938,0.911334,0.529383,0.546206,0.647264,0.654344,0.355361,1
2371,0.49206,0.513213,0.444077,0.598919,0.643349,0.496387,0.389927,0.603385,0.579,1
2372,0.58387,0.713902,0.505595,0.342459,0.444086,0.414675,0.48558,0.452095,0.616261,1
2373,0.625495,0.621004,0.35187,0.47772,0.418367,0.305306,0.517745,0.537973,0.282789,0
2374,0.338575,0.468725,0.389917,0.28661,0.678364,0.18665,0.421618,0.625841,0.759678,1
2375,0.626035,0.592761,0.257069,0.602063,0.56745,0.249299,0.380398,0.47907,0.820729,0
2376,0.564247,0.592335,0.255728,0.513127,0.542245,0.467218,0.611874,1,0.265413,0
2377,0.528761,0.491735,0.310941,0.569892,0.474196,0.276735,0.317801,0.668339,0.903116,1
2378,0.414288,0.486128,0.208644,0.450471,0.696978,0.391764,0.52007,0.280704,0.496201,0
2379,0.50637,0.477394,0.340601,0.557308,0.706694,0.682147,0.399353,0.685557,0.34336,0
2380,0.560872,0.441059,0.370918,0.725184,0.581699,0.501805,0.39851,0.648109,0.39373,0
2381,0.353264,0.446182,0.372372,0.319509,0.601214,0.28881,0.424392,0.679959,0.441013,0
2382,0.698352,0.603873,0.388319,0.724172,0.468212,0.569254,0.531286,0.666247,0.21166,0
2383,0.368106,0.217308,0.308585,0.700126,0.579671,0.48335,0.584125,0.623556,0.43485,0
2384,0.491784,0.330108,0.239257,0.73068,0.540109,0.184377,0.459158,0.43664,0.592611,0
2385,0.543482,0.52749,0.411942,0.438592,0.439743,0.43844,0.40599,0.651992,0.600768,1
2386,0.505771,0.590027,0.382487,0.32201,0.673127,0.420377,0.472676,0.61186,0.158898,0
2387,0.350136,0.342769,0.218267,0.622697,0.680676,0.450411,0.295848,0.664618,0.501708,0
2388,0.407944,0.356898,0.342103,0.595125,0.727795,0.453963,0.554867,0.565729,0.47331,0
2389,0.534049,0.415597,0.358754,0.724822,0.581699,0.384275,0.490182,0.666254,0.519104,0
2390,0.502393,0.523948,0.476171,0.679065,0.581699,0.550336,0.574393,0.341765,0.421433,1
2391,0.505771,0.381242,0.3187,0.824637,0.69593,0.49359,0.510916,0.490121,0.726822,0
2392,0.505771,0.513505,0.335986,0.762174,0.522553,0.416275,0.482823,0.501347,0.699479,0
2393,0.618236,0.634174,0.219285,0.541628,0.623863,0.488559,0.606006,0.581608,0.59345,0
2394,0.505771,0.470706,0.286429,0.614254,0.639937,0.592309,0.494237,0.504892,0.324831,0
2395,0.593167,0.392242,0.294424,0.868608,0.568418,0.347708,0.442756,0.278423,0.516403,0
2396,0.55122,0.595771,0.34609,0.519441,0.397536,0.549841,0.354052,0.684019,0.66515,1
2397,0.539702,0.518803,0.477631,0.588405,0.627641,0.599767,0.659316,0.639431,0.500883,1
2398,0.348695,0.32485,0.30841,0.54111,0.825827,0.308752,0.429095,0.610051,0.302552,0
2399,0.593662,0.575554,0.33234,0.741172,0.581699,0.520318,0.748703,0.643139,0.569492,0
2400,0.271459,0.23147,0.23945,0.577506,0.82254,0.351032,0.52384,0.532673,0.571748,0
2401,0.291685,0.560432,0.332232,0.122761,0.603917,0.444214,0.384164,0.556147,0.28831,0
2402,0.505771,0.559102,0.25116,0.497316,0.676627,0.312084,0.334903,0.196143,0.591014,0
2403,0.347505,0.459311,0.24466,0.429528,0.804013,0.265836,0.500637,0.553198,0.477401,0
2404,0.68748,0.616415,0.408083,0.746141,0.568628,0.371719,0.692627,0.690418,0.220317,0
2405,0.370627,0.477204,0.366585,0.467011,0.56094,0.390092,0.637563,0.723471,0.438552,0
2406,0.560213,0.55641,0.271011,0.746489,0.581699,0.672975,0.444109,0.372576,0.691872,0
2407,0.422638,0.502347,0.454087,0.502748,0.569892,0.432535,0.70644,0.568362,0.322851,1
2408,0.409264,0.459001,0.229596,0.390457,0.682196,0.507461,0.54499,0.465834,0.690216,0
2409,0.405587,0.347324,0.296457,0.531768,0.821654,0.311774,0.632739,0.62233,0.752464,0
2410,0.527613,0.522879,0.427394,0.632028,0.581699,0.566056,0.64083,0.583405,0.442687,1
2411,0.537088,0.591068,0.272162,0.486627,0.612741,0.234388,0.676482,0.532673,0.345193,0
2412,0.531873,0.704198,0.213303,0.327278,0.581699,0.608499,0.576164,0.501243,0.687597,0
2413,0.553853,0.626301,0.276632,0.59742,0.611089,0.355964,0.561246,0.375341,0.639634,0
2414,0.654261,0.536799,0.268583,0.763872,0.490714,0.390263,0.114817,0.444003,0.756733,0
2415,0.535499,0.723385,0.366312,0.241791,0.477607,0.307794,0.534149,0.640648,0.451489,1
2416,0.538736,0.662763,0.304674,0.312541,0.42397,0.464757,0.588336,0.426763,0.542173,1
2417,0.511361,0.413674,0.414915,0.770061,0.677772,0.26067,0.50758,0.409293,0.537279,0
2418,0.505771,0.251997,0.440519,0.769734,0.581699,0.333157,0.433227,0.50734,0.390667,0
2419,0.417477,0.361809,0.218273,0.667641,0.754646,0.614761,0.460436,0.737259,0.54605,0
2420,0.505771,0.56003,0.576259,0.618706,0.35389,0.464796,0.513581,0.363081,0.365787,1
2421,0.375601,0.593044,0.474621,0.272556,0.60404,0.318413,0.607855,0.287308,0.431233,1
2422,0.530046,0.599595,0.29788,0.499093,0.644749,0.598258,0.3788,0.358927,0.751327,0
2423,0.505304,0.585756,0.269567,0.587825,0.581699,0.590169,0.256015,0.630211,0.648316,0
2424,0.584944,0.394993,0.297367,0.931068,0.684944,0.186878,0.370571,0.641137,0.427209,0
2425,0.553152,0.501051,0.496922,0.60186,0.581699,0.232474,0.572121,0.479739,0.710471,1
2426,0.592133,0.634955,0.386876,0.405574,0.641874,0.582748,0.34504,0.458987,0.536819,1
2427,0.57323,0.602439,0.248522,0.572802,0.53721,0.340697,0.276734,0.443945,0.507647,0
2428,0.632066,0.780459,0.395639,0.395069,0.318513,0.546239,0.423848,0.376231,0.858825,1
2429,0.459887,0.562605,0.428976,0.424574,0.549531,0.674498,0.400075,0.445904,0.364976,1
2430,0.505771,0.480116,0.274333,0.521878,0.689359,0.390286,0.359902,0.371295,0.568991,0
2431,0.586111,0.570324,0.280654,0.507837,0.419765,0.288632,0.394851,0.674813,0.695694,0
2432,0.593598,0.559391,0.376637,0.704002,0.580266,0.19381,0.376432,0.510333,0.386284,0
2433,0.505771,0.698621,0.374062,0.649009,0.59699,0.535011,0.497843,0.714312,0.478525,0
2434,0.559569,0.701509,0.416606,0.309081,0.490754,0.456857,0.562801,0.78014,0.63621,1
2435,0.581619,0.628234,0.32493,0.555372,0.641697,0.324064,0.671314,0.429827,0.598808,0
2436,0.421174,0.426939,0.372724,0.562411,0.646978,0.38516,0.619294,0.644049,0.535223,0
2437,0.505771,0.65536,0.251149,0.467674,0.561045,0.386663,0.477101,0.645797,0.385739,0
2438,0.307907,0.330078,0.189173,0.411386,0.668858,0.428228,0.666219,0.38439,0.325652,0
2439,0.563984,0.439955,0.466334,0.703677,0.639081,0.587475,0.375202,0.641905,0.556198,1
2440,0.490214,0.497108,0.184844,0.453816,0.667869,0.656582,0.269996,0.271874,0.73611,0
2441,0.450341,0.602934,0.490059,0.380335,0.581699,0.27565,0.488417,0.347539,0.69199,1
2442,0.469906,0.565765,0.362096,0.461599,0.768732,0.6404,0.379231,0.572768,0.53735,1
2443,0.640517,0.794534,0.560301,0.356757,0.581699,0.282905,0.462199,0.521018,0.433401,1
2444,0.505771,0.431543,0.227912,0.677479,0.686129,0.545513,0.392841,0.479192,0.264392,0
2445,0.530221,0.58984,0.504909,0.471445,0.520134,0.4886,0.559616,0.331569,0.427809,1
2446,0.654768,0.497386,0.351623,0.929564,0.498617,0.237995,0.558604,0.40819,0.752366,0
2447,0.604907,0.379127,0.309119,0.906336,0.743706,0.338389,0.295085,0.564099,0.553148,0
2448,0.463297,0.64339,0.434868,0.228257,0.539937,0.352178,0.324331,0.511023,0.339723,1
2449,0.317078,0.517684,0.337295,0.159268,0.581699,0.584318,0.608468,0.508065,0.452681,1
2450,0.556627,0.509556,0.341065,0.801057,0.742575,0.492317,0.354898,0.650512,0.491091,0
2451,0.514658,0.513179,0.508891,0.623956,0.581699,0.380225,0.516253,0.558267,0.381042,1
2452,0.469218,0.585071,0.472903,0.502005,0.564433,0.221387,0.389283,0.527431,0.520836,1
2453,0.505771,0.489045,0.282726,0.63174,0.581699,0.217438,0.368008,0.494541,0.513287,0
2454,0.306549,0.277757,0.290898,0.645894,0.581699,0.641925,0.516583,0.739262,0.598618,0
2455,0.505771,0.467847,0.202832,0.676045,0.641331,0.284925,0.401642,0.671978,0.558494,0
2456,0.351507,0.416656,0.22667,0.473958,0.649989,0.2733,0.729421,0.52706,0.346982,0
2457,0.480513,0.544112,0.421821,0.516635,0.61821,0.510347,0.622139,0.557579,0.512053,1
2458,0.411221,0.368372,0.526954,0.690924,0.540359,0.395653,0.380113,0.336526,0.431118,1
2459,0.417311,0.616241,0.481459,0.299578,0.566723,0.226083,0.464958,0.50232,0.456664,1
2460,0.632007,0.729567,0.319721,0.730266,0.552088,0.401609,0.610644,0.551793,0.307203,0
2461,0.419018,0.360669,0.317835,0.353541,0.542602,0.407344,0.510451,0.678763,0.535321,0
2462,0.430071,0.475416,0.209736,0.594349,0.581699,0.44734,0.443325,0.479746,0.634528,0
2463,0.537852,0.451164,0.439054,0.36615,0.708012,0.251139,0.443936,0.782912,0.592801,1
2464,0.474979,0.519057,0.260572,0.383793,0.581699,0.669255,0.622338,0.341365,0.309166,0
2465,0.364128,0.491081,0.382052,0.687029,0.560562,0.46179,0.4957,0.550617,0.638934,1
2466,0.463142,0.48247,0.47141,0.544011,0.560463,0.337832,0.600991,0.610097,0.234192,1
2467,0.505771,0.746187,0.192375,0.315644,0.557944,0.421267,0.420241,0.318948,0.368679,0
2468,0.404979,0.552176,0.151445,0.661937,0.609281,0.343855,0.750206,0.646998,0.086995,0
2469,0.580551,0.564537,0.211901,0.46645,0.662657,0.399152,0.615988,0.634353,0.528299,0
2470,0.650494,0.588257,0.27187,0.13704,0.581699,0.197298,0.224686,0.563455,0.517437,0
2471,0.541126,0.56749,0.337146,0.607226,0.582414,0.613486,0.46115,0.599542,0.326419,0
2472,0.589026,0.579415,0.50503,0.449656,0.578831,0.327958,0.587508,0.440462,0.564049,1
2473,0.210391,0.287698,0.271047,0.801988,0.581699,0.48045,0.304871,0.637443,0.684436,0
2474,0.354576,0.438356,0.285252,0.733724,0.581312,0.30005,0.578304,0.539619,0.626149,0
2475,0.356528,0.341651,0.725357,0.619094,0.586625,0.617683,0.503865,0.50428,0.468255,1
2476,0.360402,0.479776,0.365097,0.764645,0.475598,0.470067,0.460376,0.659801,0.355793,0
2477,0.505771,0.576119,0.293897,0.460676,0.63392,0.639741,0.366278,0.499833,0.381842,0
2478,0.790675,0.757258,0.709534,0.289285,0.581699,0.440655,0.391854,0.446163,0.648613,1
2479,0.412524,0.443597,0.236261,0.540885,0.654111,0.619329,0.366761,0.539981,0.702261,0
2480,0.643721,0.802516,0.209232,0.569365,0.651468,0.644116,0.376087,0.510785,0.664082,0
2481,0.287972,0.355655,0.242741,0.612823,0.581514,0.282404,0.44469,0.68911,0.489306,0
2482,0.563009,0.682045,0.084661,0.479378,0.581699,0.458874,0.382319,0.271425,0.740059,0
2483,0.625678,0.62566,0.542538,0.417618,0.554038,0.458267,0.596297,0.640991,0.272183,1
2484,0.475261,0.453958,0.56637,0.621316,0.467604,0.363704,0.52385,0.545496,0.646891,1
2485,0.505771,0.480719,0.35693,0.621878,0.581699,0.358364,0.30192,0.561137,0.66431,0
2486,0.319563,0.263591,0.487516,0.471027,0.581699,0.441124,0.241796,0.807177,0.651098,1
2487,0.667819,0.742555,0.210431,0.45572,0.543487,0.29436,0.418004,0.471056,0.440163,0
2488,0.49021,0.626481,0.381894,0.489984,0.443689,0.252227,0.431906,0.719402,0.44547,0
2489,0.5901,0.5831,0.403077,0.357966,0.581699,0.453904,0.647343,0.405033,0.255328,1
2490,0.63288,0.675367,0.315721,0.482745,0.581699,0.181738,0.417366,0.197335,0.194115,0
2491,0.535465,0.579289,0.642015,0.637348,0.557917,0.678639,0.464137,0.532673,0.36177,1
2492,0.726012,0.711571,0.266012,0.284945,0.51656,0.535472,0.575603,0.674445,0.393447,0
2493,0.505771,0.435392,0.184074,0.575946,0.65906,0.776176,0.457913,0.601103,0.498426,0
2494,0.431416,0.422915,0.157992,0.57701,0.629935,0.33804,0.554347,0.525747,0.467719,0
2495,0.505771,0.49351,0.202853,0.737832,0.542199,0.526286,0.42566,0.374125,0.338518,0
2496,0.432707,0.368857,0.382269,0.484151,0.493419,0.370388,0.590622,0.433872,0.533135,1
2497,0.571787,0.507082,0.804851,0.312118,0.487733,0.447386,0.451035,0.532673,0.725804,1
2498,0.505771,0.529687,0.298791,0.600376,0.581699,0.337206,0.442504,0.348905,0.231914,0
2499,0.502739,0.551942,0.387976,0.616673,0.543941,0.416499,0.374102,0.512628,0.590958,1
2500,0.505771,0.56272,0.36016,0.51362,0.499819,0.441918,0.440494,0.514901,0.572522,1
2501,0.588364,0.599896,0.395592,0.396241,0.581699,0.461779,0.391184,0.387978,0.422778,1
2502,0.469577,0.506044,0.367825,0.458729,0.573216,0.355919,0.377875,0.582964,0.666917,1
2503,0.524151,0.512972,0.487996,0.556996,0.513065,0.496654,0.339237,0.376804,0.43229,1
2504,0.346507,0.359805,0.326842,0.46877,0.681592,0.288597,0.500641,0.456361,0.414843,0
2505,0.494137,0.638034,0.288003,0.598348,0.484057,0.432737,0.384326,0.552472,0.23473,0
2506,0.479238,0.649259,0.129992,0.574592,0.457123,0.180623,0.37044,0.414866,0.496197,0
2507,0.492432,0.446655,0.281655,0.379083,0.665592,0.804573,0.574068,0.325961,0.589685,1
2508,0.704623,0.83662,0.207815,0.513235,0.540811,0.533618,0.465569,0.681968,0.42577,0
2509,0.505771,0.590416,0.436297,0.31004,0.568548,0.28509,0.494605,0.532673,0.653037,1
2510,0.574264,0.676205,0.129386,0.621606,0.581699,0.489152,0.409117,0.551775,0.449246,0
2511,0.701765,0.618761,0.242996,0.217051,0.581699,0.555119,0.484162,0.336115,0.335798,0
2512,0.777665,0.85771,0.24392,0.33695,0.582849,0.418152,0.402394,0.578965,0.48292,0
2513,0.702243,0.784211,0.213844,0.486491,0.473749,0.491303,0.375568,0.610759,0.352015,0
2514,0.46632,0.469755,0.299023,0.448632,0.588859,0.542082,0.434148,0.780501,0.494097,0
2515,0.292244,0.360395,0.392924,0.540351,0.436591,0.526023,0.322282,0.562472,0.851262,1
2516,0.505771,0.545102,0.207556,0.479419,0.663925,0.563704,0.639555,0.645847,0.387757,0
2517,0.505771,0.672607,0.529986,0.497117,0.609602,0.464994,0.448279,0.423116,0.324332,1
2518,0.505771,0.526623,0.594351,0.556319,0.581699,0.511777,0.566527,0.662834,0.54339,1
2519,0.441083,0.529035,0.534498,0.825414,0.592296,0.408175,0.41371,0.560833,0.357604,1
2520,0.624009,0.760992,0.20368,0.780787,0.64601,0.568134,0.350095,0.55725,0.36274,0
2521,0.588639,0.716955,0.290291,0.705708,0.629533,0.284289,0.448456,0.532673,0.60811,0
2522,0.653735,0.66055,0.397985,0.523705,0.692254,0.374079,0.461813,0.32643,0.442953,0
2523,0.505771,0.585457,0.185351,0.476969,0.581699,0.394387,0.18662,0.613697,0.446859,0
2524,0.451255,0.347736,0.365428,0.417853,0.596247,0.686063,0.50251,0.391328,0.36851,1
2525,0.40658,0.429734,0.362447,0.495553,0.511665,0.609571,0.35525,0.532673,0.611153,1
2526,0.505771,0.560052,0.479221,0.280049,0.556944,0.432235,0.25362,0.613618,0.503937,1
2527,0.505771,0.335604,0.510624,0.491249,0.617677,0.344993,0.587911,0.438584,0.583509,1
2528,0.513678,0.464391,0.568297,0.397302,0.577211,0.401879,0.362682,0.483068,0.542765,1
2529,0.527222,0.511014,0.197017,0.402467,0.608582,0.513795,0.598729,0.305036,0.546935,0
2530,0.440894,0.509101,0.167104,0.576952,0.549728,0.499436,0.729271,0.547011,0.506709,0
2531,0.648308,0.611119,0.227115,0.365403,0.580913,0.227877,0.328595,0.554726,0.375683,0
2532,0.632437,0.6367,0.310935,0.418322,0.757686,0.499432,0.316246,0.592567,0.380289,0
2533,0.483433,0.480152,0.385381,0.389832,0.580058,0.489713,0.435149,0.485415,0.509701,1
2534,0.505771,0.579005,0.4967,0.319859,0.604736,0.370772,0.512055,0.654569,0.313801,1
2535,0.61023,0.49503,0.53716,0.185892,0.652092,0.786933,0.579814,0.54717,0.264299,1
2536,0.683204,0.741315,0.276415,0.461932,0.618427,0.400166,0.629392,0.667017,0.327624,0
2537,0.392842,0.372314,0.703943,0.486779,0.549715,0.185015,0.345993,0.576684,0.419403,1
2538,0.371137,0.463289,0.544315,0.630564,0.540446,0.529495,0.559876,0.759512,0.742277,1
2539,0.52028,0.544703,0.374207,0.716306,0.577597,0.468434,0.469678,0.561911,0.401184,0
2540,0.41946,0.500457,0.230231,0.730976,0.581099,0.398052,0.480507,0.514723,0.433176,0
2541,0.409695,0.402212,0.411158,0.577425,0.706027,0.676427,0.437802,0.610199,0.620713,1
2542,0.439887,0.466461,0.427675,0.737316,0.621803,0.47603,0.423551,0.489362,0.686424,1
2543,0.521026,0.523561,0.677254,0.388189,0.546318,0.281569,0.444158,0.435864,0.356699,1
2544,0.503876,0.598484,0.117051,0.655586,0.581699,0.375213,0.351876,0.604252,0.629725,0
2545,0.505771,0.553191,0.421178,0.480547,0.588133,0.285886,0.400016,0.374134,0.321756,0
2546,0.224908,0.344007,0.376583,0.62053,0.466325,0.367849,0.257609,0.548252,0.3811,0
2547,0.404662,0.418794,0.518207,0.62313,0.629723,0.645848,0.514646,0.581845,0.590248,1
2548,0.593638,0.719236,0.124923,0.663827,0.694438,0.292266,0.456164,0.681496,0.55938,0
2549,0.506864,0.578166,0.397786,0.39357,0.581699,0.321613,0.394452,0.637321,0.589858,1
2550,0.568365,0.550163,0.330095,0.612133,0.713228,0.265228,0.472715,0.499005,0.431059,0
2551,0.528588,0.621682,0.128314,0.464529,0.516322,0.589742,0.497561,0.406443,0.648538,0
2552,0.69533,0.716367,0.306295,0.343951,0.572779,0.354045,0.486475,0.532673,0.388826,0
2553,0.574126,0.550549,0.657527,0.544455,0.581699,0.196464,0.461865,0.551877,0.401308,1
2554,0.505771,0.736839,0.397619,0.542904,0.613895,0.427763,0.4515,0.482077,0.879114,1
2555,0.405844,0.375977,0.427748,0.414841,0.581699,0.501853,0.246122,0.823518,0.742136,1
2556,0.599608,0.641713,0.388147,0.34226,0.592012,0.516029,0.575237,0.52115,0.427769,1
2557,0.609164,0.653825,0.44382,0.573333,0.627774,0.361372,0.398917,0.644546,0.594994,1
2558,0.445575,0.474682,0.354621,0.527075,0.587615,0.185516,0.58467,0.374935,0.453452,0
2559,0.41933,0.503266,0.305205,0.637357,0.567415,0.429649,0.425288,0.417196,0.430854,0
2560,0.459552,0.469455,0.434024,0.483872,0.532742,0.565941,0.732552,0.481806,0.315356,1
2561,0.433526,0.556724,0.147805,0.707282,0.558096,0.470322,0.3917,0.593662,0.655097,0
2562,0.475747,0.659821,0.152887,0.856939,0.560056,0.450526,0.72636,0.319309,0.420332,0
2563,0.536151,0.510678,0.518824,0.41975,0.583027,0.445763,0.498888,0.345788,0.622803,1
2564,0.421082,0.524532,0.236166,0.591293,0.502251,0.434167,0.491116,0.358177,0.685425,0
2565,0.46066,0.621981,0.205096,0.826355,0.581699,0.419357,0.222621,0.635618,0.49445,0
2566,0.610752,0.588521,0.362136,0.180234,0.548691,0.406026,0.413669,0.342781,0.594063,1
2567,0.50876,0.493198,0.508568,0.318828,0.581699,0.402429,0.454638,0.620206,0.434949,1
2568,0.611333,0.604571,0.631246,0.489714,0.514202,0.351728,0.524788,0.458039,0.215662,1
2569,0.330307,0.26698,0.37206,0.621924,0.690387,0.13829,0.415863,0.533948,0.373275,0
2570,0.505771,0.347007,0.311456,0.448714,0.68707,0.532606,0.449223,0.511628,0.504309,0
2571,0.435099,0.524821,0.278445,0.671236,0.581699,0.405283,0.403824,0.68382,0.685483,0
2572,0.689904,0.699755,0.327533,0.524362,0.696478,0.675517,0.51292,0.446999,0.603023,0
2573,0.579687,0.553759,0.249434,0.445723,0.581699,0.418944,0.234493,0.430283,0.559427,0
2574,0.505771,0.586642,0.123543,0.57277,0.865534,0.419931,0.542231,0.532673,0.568093,0
2575,0.493919,0.57607,0.164555,0.58076,0.555018,0.594267,0.535392,0.547687,0.290908,0
2576,0.524137,0.512773,0.393155,0.508247,0.560334,0.55766,0.428098,0.52872,0.46994,1
2577,0.554722,0.598079,0.391166,0.592868,0.667787,0.494221,0.508247,0.562767,0.557743,1
2578,0.602427,0.698772,0.172435,0.631464,0.534901,0.427888,0.225178,0.393731,0.324771,0
2579,0.492254,0.495635,0.214358,0.509936,0.581775,0.572165,0.551196,0.656933,0.663441,0
2580,0.424726,0.519128,0.204359,0.672231,0.553199,0.556875,0.391396,0.432879,0.652984,0
2581,0.45456,0.580323,0.156368,0.736902,0.544358,0.498565,0.649665,0.466708,0.489503,0
2582,0.380843,0.371875,0.318078,0.531831,0.588051,0.182762,0.463547,0.368125,0.621077,0
2583,0.505771,0.671649,0.169328,0.564083,0.582478,0.630798,0.452626,0.685346,0.633203,0
2584,0.604715,0.641088,0.36453,0.494471,0.448665,0.259786,0.595559,0.625333,0.47204,0
2585,0.530448,0.524909,0.602073,0.371754,0.581699,0.715252,0.633578,0.194677,0.550829,1
2586,0.801367,0.689721,0.353836,0.213097,0.581699,0.336688,0.521243,0.517178,0.81293,1
2587,0.407751,0.506543,0.194933,0.621253,0.632255,0.692337,0.46581,0.532673,0.358156,0
2588,0.468545,0.379711,0.366187,0.579969,0.734365,0.37131,0.302968,0.442542,0.418692,0
2589,0.400451,0.518344,0.196815,0.641625,0.518933,0.381428,0.625453,0.539407,0.434627,0
2590,0.505771,0.492535,0.328217,0.504023,0.717151,0.285881,0.34247,0.575738,0.460836,0
2591,0.505771,0.506316,0.470687,0.409864,0.580117,0.519865,0.490859,0.560328,0.419147,1
2592,0.505771,0.640056,0.137937,0.643245,0.581699,0.338647,0.506929,0.517809,0.376309,0
2593,0.538524,0.652482,0.201785,0.71668,0.613978,0.282865,0.404945,0.665966,0.692783,0
2594,0.632122,0.545344,0.325228,0.378116,0.569559,0.306007,0.370991,0.364823,0.29073,0
2595,0.548769,0.595708,0.203631,0.494743,0.715692,0.312356,0.458824,0.561501,0.679581,0
2596,0.505771,0.455349,0.396101,0.522947,0.581699,0.68224,0.358233,0.45238,0.619275,1
2597,0.460585,0.486622,0.29783,0.655645,0.581699,0.300984,0.449786,0.594283,0.469316,0
2598,0.728529,0.75908,0.466008,0.594019,0.560925,0.648199,0.252983,0.532673,0.5549,1
2599,0.554728,0.637036,0.240113,0.444213,0.581699,0.526218,0.174244,0.66889,0.420538,0
2600,0.505771,0.521848,0.282724,0.659705,0.581699,0.248887,0.646468,0.493439,0.50658,0
2601,0.696898,0.714672,0.289283,0.532059,0.581699,0.273196,0.822516,0.588141,0.434677,0
2602,0.505771,0.406132,1,0.263138,0.522614,0.342015,0.576502,0.660862,0.455815,1
2603,0.457628,0.491321,0.287821,0.556615,0.578037,0.379982,0.578606,0.513802,0.590654,0
2604,0.505771,0.745841,0.468654,0.639716,0.669685,0.521485,0.521957,0.56806,0.613923,1
2605,0.60323,0.656859,0.470323,0.456192,0.581699,0.31515,0.473342,0.485748,0.557895,1
2606,0.295503,0.249939,0.275522,0.649723,0.550782,0.313302,0.21641,0.569835,0.544026,0
2607,0.54828,0.67419,0.383412,0.630567,0.581699,0.08941,0.622966,0.488842,0.678854,0
2608,0.505771,0.711847,0.339142,0.481429,0.629064,0.535224,0.316154,0.676939,0.398647,0
2609,0.407221,0.446383,0.275843,0.718905,0.698166,0.345173,0.336098,0.507499,0.852099,0
2610,0.45547,0.471824,0.671887,0.494553,0.581699,0.533912,0.432597,0.524317,0.512684,1
2611,0.394124,0.519558,0.284328,0.796388,0.581699,0.49041,0.39585,0.358179,0.581037,0
2612,0.27533,0.304558,0.31719,0.579374,0.501044,0.480938,0.561867,0.655418,0.537046,0
2613,0.539863,0.748694,0.267985,0.851068,0.581699,0.654793,0.496346,0.657203,0.514087,0
2614,0.527674,0.605244,0.186741,0.69837,0.700239,0.306583,0.497491,0.644912,0.4501,0
2615,0.55453,0.530625,0.32342,0.625627,0.69482,0.338526,0.353869,0.229232,0.503599,0
2616,0.505771,0.573538,0.40225,0.538151,0.569281,0.358172,0.269083,0.559499,0.52982,1
2617,0.536382,0.52608,0.274597,0.662532,0.618531,0.148418,0.526056,0.669505,0.542987,0
2618,0.505771,0.262807,0.36138,0.602704,0.631085,0.508133,0.553365,0.502256,0.606806,1
2619,0.361234,0.391944,0.30675,0.461753,0.50237,0.588638,0.520017,0.782569,0.563863,1
2620,0.416467,0.428141,0.48764,0.632571,0.583466,0.546762,0.554276,0.558503,0.707528,1
2621,0.418549,0.420995,0.310479,0.484515,0.597594,0.501685,0.672379,0.495311,0.245289,0
2622,0.63512,0.498519,0.681055,0.239341,0.590991,0.48892,0.441207,0.335384,0.580941,1
2623,0.725301,0.713758,0.401191,0.341241,0.485178,0.360414,0.504352,0.568588,0.431253,1
2624,0.505771,0.652905,0.521806,0.257914,0.547313,0.440306,0.363605,0.456845,0.402919,1
2625,0.548797,0.631659,0.413011,0.748569,0.581699,0.334558,0.377565,0.415006,0.629859,0
2626,0.532539,0.645221,0.261404,0.614646,0.628093,0.262635,0.418198,0.482096,0.279895,0
2627,0.505771,0.618491,0.615686,0.622101,0.581699,0.325406,0.506553,0.289697,0.292074,1
2628,0.343702,0.373675,0.447029,0.564974,0.474397,0.594688,0.54007,0.353317,0.266779,1
2629,0.408581,0.489706,0.215789,0.618549,0.581699,0.384755,0.427654,0.423609,0.390103,0
2630,0.711536,0.831608,0.302469,0.68953,0.659662,0.482755,0.741934,0.754509,0.711966,0
2631,0.230784,0.26607,0.21952,0.50755,0.565974,0.13981,0.620925,0.439017,0.346364,0
2632,0.727745,0.867403,0.111398,0.742743,0.547356,0.448355,0.408874,0.63275,0.602239,0
2633,0.447351,0.502556,0.079403,0.583357,0.594253,0.679896,0.475151,0.532673,0.594615,0
2634,0.528558,0.661406,0.464813,0.65438,0.492331,0.447459,0.372703,0.631488,0.445022,1
2635,0.662262,0.757517,0.436594,0.423858,0.413731,0.500593,0.389911,0.723394,0.433769,1
2636,0.336013,0.44438,0.110135,0.675933,0.536402,0.188952,0.224883,0.510514,0.508413,0
2637,0.618199,0.619317,0.237716,0.454955,0.673657,0.411617,0.258794,0.583167,0.699213,0
2638,0.572769,0.655367,0.44469,0.480576,0.581699,0.547577,0.249681,0.449862,0.549495,1
2639,0.584955,0.660797,0.211417,0.442736,0.58249,0.74141,0.48511,0.83225,0.423199,0
2640,0.667221,0.663777,0.294439,0.451035,0.581699,0.197774,0.410297,0.739226,0.595346,0
2641,0.505771,0.655877,0.300007,0.434693,0.581699,0.513784,0.439565,0.436099,0.50536,0
2642,0.349426,0.384756,0.151686,0.586698,0.627287,0.551516,0.354698,0.48979,0.464033,0
2643,0.43263,0.596078,0.067634,0.716658,0.581699,0.236838,0.596414,0.428382,0.36076,0
2644,0.403937,0.360293,0.31115,0.472755,0.532612,0.50434,0.374384,0.497043,0.557979,0
2645,0.56359,0.425388,0.284439,0.531457,0.581699,0.791514,0.757746,0.264001,0.602522,1
2646,0.850553,0.909227,0.275214,0.432641,0.581699,0.382694,0.454535,0.516222,0.530614,0
2647,0.629391,0.808067,0.194027,0.795973,0.657033,0.447718,0.526923,0.544697,0.782264,0
2648,0.294756,0.237919,0.66016,0.480466,0.581699,0.368317,0.52082,0.552153,0.388495,1
2649,0.409668,0.369034,0.464767,0.369556,0.581699,0.49675,0.383216,0.528726,0.498214,1
2650,0.571484,0.689491,0.297148,0.623979,0.508496,0.375779,0.432664,0.665374,0.580301,0
2651,0.626789,0.522666,0.352143,0.344345,0.733588,0.444235,0.370697,0.448566,0.450123,0
2652,0.593131,0.636645,0.422119,0.528922,0.581699,0.326655,0.466804,0.562499,0.367301,0
2653,0.363017,0.523537,0.285985,0.685693,0.513556,0.405126,0.387246,0.71518,0.681864,0
2654,0.415253,0.49548,0.16076,0.484148,0.512601,0.45485,0.353953,0.622821,0.429462,0
2655,0.244457,0.340483,0.257719,0.615477,0.581699,0.698401,0.321965,0.764316,0.42092,0
2656,0.422384,0.366989,0.232272,0.454567,0.581699,0.429402,0.46833,0.452065,0.198493,0
2657,0.484502,0.684992,0.12959,0.703003,0.581699,0.558765,0.359797,0.737802,0.629383,0
2658,0.48829,0.573958,0.295542,0.497914,0.479609,0.547339,0.444786,0.567703,0.662225,1
2659,0.348885,0.32328,0.460897,0.633143,0.581699,0.357816,0.445666,0.592937,0.409662,1
2660,0.595111,0.694835,0.185775,0.279549,0.41872,0.393036,0.50616,0.532673,0.234901,0
2661,0.558547,0.644469,0.264062,0.527696,0.523159,0.405214,0.504813,0.259154,0.18006,0
2662,0.38774,0.433764,0.404051,0.596093,0.582583,0.382804,0.612228,0.564446,0.264293,0
2663,0.325475,0.395336,0.231171,0.713056,0.581699,0.52856,0.218304,0.439519,0.556297,0
2664,0.523786,0.515125,0.526015,0.469227,0.603204,0.540591,0.396072,0.49361,0.225374,1
2665,0.50817,0.540828,0.438408,0.455952,0.581699,0.552654,0.632348,0.478594,0.437263,1
2666,0.455496,0.445407,0.258732,0.397793,0.576248,0.227834,0.517383,0.43221,0.535902,0
2667,0.667017,0.728871,0.280691,0.494237,0.607109,0.566912,0.672139,0.469898,0.079897,0
2668,0.505771,0.30152,0.280901,0.466979,0.548417,0.600081,0.502607,0.605527,0.773553,1
2669,0.638134,0.837165,0.227541,0.608709,0.537898,0.268872,0.554211,0.386326,0.552996,0
2670,0.757185,0.82533,0.348689,0.450945,0.628819,0.261667,0.398881,0.532673,0.761524,0
2671,0.488487,0.539603,0.189739,0.725847,0.671387,0.318819,0.487512,0.327622,0.628954,0
2672,0.400063,0.493818,0.329863,0.73595,0.589167,0.326787,0.340838,0.536111,0.550583,0
2673,0.435895,0.478669,0.392001,0.532551,0.546663,0.602275,0.432113,0.481254,0.159307,0
2674,0.463637,0.513615,0.494739,0.446819,0.478688,0.516619,0.489424,0.375419,0.55253,1
2675,0.607641,0.545221,0.324716,0.477852,0.611104,0.65477,0.261623,0.634381,0.459783,0
2676,0.529521,0.540532,0.281488,0.466317,0.642458,0.20888,0.420616,0.647943,0.347912,0
2677,0.505771,0.743484,0.326343,0.173014,0.629342,0.47824,0.3767,0.556167,0.698893,1
2678,0.541874,0.520357,0.26416,0.421685,0.581699,0.387011,0.448509,0.767833,0.54856,0
2679,0.507382,0.733272,0.06739,0.615246,0.466092,0.15206,0.62157,0.54953,0.561012,0
2680,0.439535,0.419938,0.785714,0.532431,0.484522,0.285443,0.113386,0.444508,0.637166,1
2681,0.169769,0.299,0.186568,0.753253,0.489815,0.563822,0.250623,0.613106,0.412028,0
2682,0.536774,0.609403,0.274134,0.553036,0.58703,0.528407,0.472523,0.52976,0.538804,0
2683,0.531799,0.645524,0.400954,0.696399,0.581699,0.385815,0.510957,0.700507,0.413669,0
2684,0.345378,0.322327,0.372873,0.407685,0.653162,0.674957,0.356544,0.487059,0.412887,1
2685,0.598306,0.727989,0.451567,0.52826,0.608066,0.440609,0.630609,0.426456,0.804304,1
2686,0.567565,0.600795,0.27007,0.343901,0.464219,0.518805,0.459381,0.659704,0.40375,0
2687,0.623413,0.562176,0.413766,0.272269,0.562189,0.490462,0.552163,0.840772,0.450282,1
2688,0.434959,0.57976,0.180905,0.668207,0.534837,0.612538,0.363001,0.386334,0.551496,0
2689,0.512309,0.522168,0.236119,0.485722,0.525143,0.600755,0.399624,0.872347,0.308984,0
2690,0.595211,0.685912,0.304745,0.307138,0.581699,0.355412,0.49506,0.444336,0.370259,0
2691,0.505771,0.669375,0.347089,0.651388,0.658102,0.338542,0.382329,0.536471,0.473642,0
2692,0.325955,0.382585,0.216228,0.559524,0.59536,0.599141,0.457624,0.553928,0.638151,0
2693,0.505771,0.484775,0.488119,0.596762,0.65644,0.343914,0.592895,0.532673,0.391848,1
2694,0.262632,0.457923,0.365484,0.962925,0.454866,0.731379,0.237027,0.396883,0.758456,1
2695,0.505771,0.442247,0.374555,0.618069,0.590994,0.260329,0.480808,0.46745,0.39084,0
2696,0.563506,0.583878,0.404782,0.543584,0.581699,0.475088,0.395773,0.48431,0.488569,1
2697,0.394698,0.510439,0.259285,0.622695,0.581699,0.31824,0.3791,0.60019,0.558028,0
2698,0.347004,0.407206,0.534684,0.574349,0.581699,0.272627,0.801073,0.611352,0.506896,1
2699,0.233773,0.355688,0.116376,0.911469,0.589971,0.441063,0.316432,0.532673,0.542355,0
2700,0.508398,0.503343,0.512394,0.47241,0.586167,0.348153,0.646513,0.609799,0.54517,1
2701,0.558733,0.55341,0.36269,0.386035,0.60813,0.720457,0.385942,0.604551,0.308351,1
2702,0.309576,0.393183,0.213943,0.645943,0.547643,0.360295,0.214921,0.625831,0.219991,0
2703,0.505771,0.60431,0.159566,0.765411,0.723671,0.534988,0.64052,0.411703,0.342172,0
2704,0.631399,0.720494,0.342474,0.576568,0.608036,1,0.563904,0.484318,0.315379,1
2705,0.377905,0.409878,0.146851,0.698244,0.652066,0.495034,0.345625,0.542812,0.393378,0
2706,0.562377,0.490456,0.410733,0.263254,0.663251,0.23381,0.380553,0.525401,0.350991,0
2707,0.510603,0.456454,0.498064,0.343313,0.581699,0.602248,0.473863,0.463111,0.540475,1
2708,0.460972,0.464458,0.409428,0.569435,0.381789,0.341065,0.519364,0.532673,0.778647,1
2709,0.505771,0.516487,0.327674,0.504731,0.581699,0.233188,0.302379,0.372307,0.659863,0
2710,0.403866,0.450936,0.264509,0.54258,0.73546,0.415511,0.368385,0.694214,0.381218,0
2711,0.546477,0.69664,0.246378,0.671303,0.694361,0.426421,0.600904,0.532673,0.490397,0
2712,0.458443,0.457083,0.316821,0.551426,0.547865,0.367545,0.622757,0.370007,0.230852,0
2713,0.489143,0.552591,0.426492,0.546941,0.639861,0.377808,0.763983,0.412106,0.447198,1
2714,0.499406,0.382834,0.329501,0.179757,0.574532,0.487292,0.509018,0.559232,0.430105,1
2715,0.4232,0.232312,0.247806,0.512566,0.621712,0.168056,0.423799,0.595934,0.517854,0
2716,0.53762,0.524988,0.626331,0.490361,0.45917,0.468356,0.415935,0.470791,0.510158,1
2717,0.505771,0.673329,0.596317,0.755242,0.86957,0.27311,0.553083,0.489492,0.642797,1
2718,0.380332,0.345948,0.006696,0.63024,0.581699,0.551734,0.497114,0.481412,0.416336,0
2719,0.645595,0.652633,0.558775,0.408711,0.2899,0.42,0.541434,0.74561,0.426596,1
2720,0.424713,0.378153,0.197615,0.590381,0.605144,0.506486,0.518217,0.461984,0.443057,0
2721,0.442506,0.536871,0.312123,0.685758,0.607537,0.426712,0.57519,0.684527,0.519296,0
2722,0.647344,0.722537,0.453795,0.414714,0.510696,0.442262,0.725749,0.352188,0.431153,1
2723,0.509816,0.591496,0.282166,0.544261,0.490418,0.214661,0.416705,0.515106,0.286289,0
2724,0.445144,0.584842,0.194212,0.642508,0.581699,0.251567,0.423257,0.264821,0.03621,0
2725,0.555776,0.632635,0.65942,0.45355,0.492371,0.66841,0.366017,0.412304,0.595959,1
2726,0.510718,0.694131,0.236224,0.646166,0.91445,0.322204,0.489139,0.425167,0.22384,0
2727,0.326723,0.314733,0.364486,0.613685,0.779314,0.333503,0.347161,0.554179,0.309416,0
2728,0.441379,0.407488,0.348266,0.603627,0.407467,0.574072,0.337569,0.805263,0.283978,0
2729,0.397595,0.385733,0.234027,0.599573,0.581699,0.36122,0.459791,0.606977,0.373371,0
2730,0.505771,0.408656,0.430836,0.535031,0.548505,0.334243,0.354605,0.457667,0.697066,1
2731,0.513226,0.588523,0.403716,0.496209,0.581699,0.560106,0.532132,0.607919,0.473785,1
2732,0.505771,0.411633,0.22366,0.629959,0.715189,0.284459,0.498417,0.607138,0.508896,0
2733,0.499318,0.647431,0.285002,0.539872,0.70695,0.604558,0.443956,0.706633,0.706077,0
2734,0.415053,0.378844,0.412086,0.588819,0.523718,0.546759,0.476884,0.621731,0.375679,1
2735,0.531726,0.594919,0.323161,0.539045,0.581699,0.600081,0.44361,0.398849,0.448264,0
2736,0.312491,0.351135,0.280157,0.668997,0.581699,0.386087,0.441219,0.448247,0.298754,0
2737,0.47161,0.461388,0.349497,0.487619,0.511124,0.832525,0.263006,0.552393,0.405085,1
2738,0.489821,0.673863,0.365853,0.491198,0.679219,0.40386,0.564221,0.501533,0.540099,0
2739,0.505771,0.469147,0.314668,0.595549,0.805064,0.166308,0.555941,0.266303,0.46099,0
2740,0.484987,0.543607,0.364605,0.376904,0.769768,0.42143,0.52554,0.382901,0.57895,0
2741,0.611454,0.715888,0.228773,0.555922,0.531122,0.55801,0.614128,0.459408,0.281568,0
2742,0.505771,0.238469,0.157997,0.468504,0.639994,0.408938,0.669585,0.181222,0.44195,0
2743,0.591218,0.707773,0.203507,0.373913,0.6883,0.664985,0.498851,0.495376,0.435115,0
2744,0.505771,0.400264,0.219859,0.452598,0.581699,0.189318,0.420411,0.484495,0.68415,0
2745,0.494376,0.402116,0.506618,0.518747,0.581699,0.612343,0.355639,0.480769,0.395232,1
2746,0.402637,0.405189,0.442694,0.514029,0.567869,0.238428,0.437219,0.288793,0.294411,0
2747,0.471965,0.667897,0.428525,0.722178,0.821636,0.457861,0.516138,0.49185,0.377597,0
2748,0.353672,0.38369,0.325031,0.675818,0.74445,0.414169,0.36903,0.548828,0.457682,0
2749,0.422367,0.49679,0.665397,0.523666,0.576541,0.667868,0.755455,0.471363,0.463266,1
2750,0.505771,0.671172,0.255345,0.470722,0.523431,0.322007,0.313906,0.478016,0.615764,0
2751,0.414017,0.395061,0.25203,0.630672,0.581699,0.682214,0.588062,0.597627,0.195433,0
2752,0.359977,0.388065,0.372812,0.57987,0.834499,0.540079,0.594957,0.557922,0.645654,1
2753,0.440251,0.501858,0.60686,0.617521,0.581699,0.401672,0.534945,0.683044,0.383295,1
2754,0.452796,0.435224,0.263408,0.606183,0.520961,0.334047,0.754295,0.732816,0.360326,0
2755,0.543619,0.53041,0.331504,0.493333,0.581699,0.372665,0.464344,0.314446,0.747744,1
2756,0.413006,0.554868,0.411209,0.698087,0.581699,0.601633,0.324732,0.432762,0.682428,1
2757,0.460822,0.479147,0.12593,0.457525,0.705251,0.358581,0.507069,0.602412,0.918449,0
2758,0.505771,0.479325,0.776116,0.606286,0.581699,0.642443,0.444447,0.466338,0.422687,1
2759,0.494318,0.54005,0.639183,0.637322,0.53513,0.535133,0.478845,0.332752,0.576445,1
2760,0.467799,0.600272,0.31056,0.595553,0.581699,0.42478,0.397971,0.396291,0.518115,0
2761,0.456659,0.502025,0.278086,0.546223,0.571348,0.25346,0.362084,0.380507,0.414897,0
2762,0.435732,0.410517,0.222734,0.562879,0.675193,0.469459,0.63306,0.5164,0.137058,0
2763,0.454245,0.583154,0.37806,0.676978,0.581699,0.271224,0.45877,0.532673,0.413404,0
2764,0.448034,0.517856,0.235136,0.734443,0.767129,0.467046,0.550083,0.597892,0.597946,0
2765,0.505771,0.412846,0.380064,0.629419,0.581699,0.46743,0.445834,0.563586,0.406546,0
2766,0.535275,0.54372,0.432754,0.535924,0.400228,0.339278,0.418962,0.558589,0.44809,1
2767,0.545376,0.571782,0.286923,0.532661,0.50507,0.330636,0.585702,0.261092,0.472358,0
2768,0.64983,0.784905,0.625422,0.570048,0.41462,0.447278,0.616317,0.598518,0.760761,1
2769,0.574296,0.643586,0.107687,0.609388,0.823664,0.313843,0.391031,0.588016,0.479573,0
2770,0.521208,0.368699,0.256304,0.485174,0.417615,0.325991,0.479811,0.502154,0.609085,0
2771,0.587629,0.521766,0.265182,0.50974,0.581699,0.303296,0.497458,0.5085,0.139668,0
2772,0.572442,0.713434,0.496596,0.576317,0.508443,0.224613,0.783203,0.493587,0.371918,1
2773,0.660921,0.684339,0.205798,0.425282,0.418391,0.259573,0.398815,0.445229,0.400158,0
2774,0.520579,0.613658,0.306357,0.572721,0.653291,0.355352,0.458376,0.426531,0.411607,0
2775,0.347532,0.243141,0.534223,0.557422,0.671252,0.615221,0.534544,0.364341,0.684487,1
2776,0.340202,0.383997,0.368707,0.508002,0.581699,0.596742,0.520518,0.692757,0.193191,0
2777,0.36725,0.234182,0.180075,0.429726,0.739213,0.233879,0.413122,0.652441,0.578669,0
2778,0.349027,0.405837,0.629038,0.627646,0.701357,0.466141,0.560177,0.474154,0.336141,1
2779,0.675294,0.643418,0.345761,0.395749,0.280276,0.437397,0.520013,0.416153,0.493217,1
2780,0.500037,0.623923,0.421815,0.464101,0.756302,0.527816,0.664316,0.37419,0.545224,1
2781,0.59457,0.779082,0.344331,0.526414,0.628712,0.624819,0.593282,0.580924,0.511209,0
2782,0.474511,0.513187,0.534475,0.504071,0.581906,0.271182,0.479188,0.544424,0.588428,1
2783,0.505771,0.58316,0.287563,0.671494,0.631238,0.169232,0.306833,0.417895,0.805387,0
2784,0.482761,0.518351,0.334046,0.503457,0.581699,0.53007,0.290604,0.697356,0.244638,0
2785,0.61635,0.504932,0.219471,0.464739,0.356102,0.369362,0.390331,0.425214,0.306551,0
2786,0.699623,0.750813,0.199809,0.441525,0.460748,0.689965,0.362655,0.648701,0.256595,0
2787,0.384006,0.500952,0.586236,0.727823,0.609284,0.290424,0.452278,0.532673,0.412034,1
2788,0.400238,0.582045,0.600146,0.569812,0.783094,0.576985,0.433534,0.686404,0.463305,1
2789,0.613744,0.657415,0.536768,0.612161,0.581699,0.257187,0.57196,0.532673,0.425655,1
2790,0.519056,0.474536,0.44573,0.445555,0.526632,0.383209,0.439285,0.700896,0.466974,1
2791,0.576047,0.607144,0.440873,0.471012,0.353609,0.539987,0.393059,0.524586,0.354342,1
2792,0.505771,0.634174,0.296942,0.613071,0.581699,0.374157,0.278773,0.641839,0.427483,0
2793,0.452604,0.501458,0.420422,0.614272,0.54773,0.541198,0.32436,0.412246,0.588243,1
2794,0.440453,0.589986,0.617374,0.501622,0.581699,0.062733,0.386561,0.318347,0.636473,1
2795,0.323814,0.443623,0.492247,0.526255,0.807038,0.357033,0.569367,0.564289,0.328728,1
2796,0.639404,0.574773,0.244119,0.208535,0.439927,0.393148,0.648499,0.526532,0.074564,0
2797,0.515055,0.419364,0.228375,0.548019,0.554201,0.454728,0.29092,0.723515,0.569561,0
2798,0.302734,0.317229,0.476534,0.612828,0.631301,0.38636,0.391854,0.673562,0.441941,1
2799,0.590292,0.613438,0.381504,0.42886,0.580917,0.471049,0.247805,0.316936,0.370677,0
2800,0.563808,0.627208,0.231887,0.601597,0.486185,0.275562,0.621595,0.537644,0.500541,0
2801,0.346828,0.356769,0.239455,0.741892,0.74899,0.485792,0.315961,0.418227,0.613945,0
2802,0.373604,0.379634,0.401761,0.46628,0.738567,0.221094,0.398245,0.412838,0.424582,0
2803,0.501235,0.445064,0.325884,0.380766,0.70797,0.579312,0.509808,0.518302,0.652224,1
2804,0.352998,0.432651,0.319926,0.601164,0.844124,0.298247,0.509459,0.550619,0.685602,0
2805,0.688444,0.649414,0.499436,0.508603,0.581699,0.169216,0.44172,0.555971,0.598293,1
2806,0.5241,0.46908,0.29919,0.530339,0.424285,0.430958,0.481724,0.689124,0.66777,0
2807,0.505771,0.70236,0.366724,0.543391,0.581699,0.234534,0.544245,0.368331,0.432067,0
2808,0.505771,0.486768,0.366862,0.537696,0.581699,0.595234,0.336606,0.611611,0.348259,0
2809,0.589828,0.583884,0.324894,0.460163,0.3033,0.606067,0.467846,0.602351,0.582071,1
2810,0.593948,0.661337,0.242289,0.52458,0.581699,0.464225,0.382954,0.622945,0.506433,0
2811,0.505771,0.244119,0.219305,0.753753,0.888635,0.598953,0.35191,0.571265,0.348619,0
2812,0.512257,0.735579,0.363018,0.575004,0.581699,0.491875,0.219287,0.640585,0.599874,0
2813,0.495806,0.483822,0.248122,0.53136,0.558235,0.523547,0.693576,0.493118,0.515969,0
2814,0.505771,0.759922,0.220755,0.3704,0.45823,0.355722,0.595078,0.467434,0.478218,0
2815,0.492039,0.479522,0.49915,0.487462,0.442819,0.370737,0.210767,0.507501,0.274425,1
2816,0.488079,0.475988,0.511282,0.594196,0.492955,0.408516,0.657867,0.532673,0.29714,1
2817,0.58914,0.537221,0.459825,0.393447,0.432434,0.712091,0.608312,0.568343,0.618875,1
2818,0.637313,0.838571,0.355342,0.606938,0.582488,0.357415,0.253007,0.532673,0.826588,0
2819,0.525433,0.679564,0.510426,0.551353,0.438909,0.432396,0.764993,0.703064,0.586106,1
2820,0.505771,0.438814,0.424055,0.67933,0.838853,0.461411,0.324697,0.41488,0.461964,0
2821,0.696622,0.806002,0.162108,0.596951,0.480306,0.696885,0.397035,0.41063,0.37287,0
2822,0.488867,0.49679,0.674597,0.47812,0.581699,0.3787,0.420169,0.552909,0.37112,1
2823,0.493626,0.706075,0.122212,0.60226,0.885251,0.535881,0.619801,0.361576,0.546445,0
2824,0.628703,0.573016,0.210163,0.497046,0.38202,0.380863,0.640193,0.545386,0.488088,0
2825,0.448793,0.686967,0.424705,0.705469,0.566722,0.50596,0.542219,0.553069,0.229518,0
2826,0.45386,0.65218,0.260293,0.564808,0.801877,0.304347,0.29769,0.663259,0.65896,0
2827,0.423483,0.524558,0.310627,0.675919,0.770286,0.485744,0.294776,0.417158,0.405164,0
2828,0.487403,0.445773,0.225466,0.608112,0.581699,0.633945,0.434568,0.62054,0.366111,0
2829,0.524445,0.546758,0.573883,0.384877,0.486906,0.466318,0.390366,0.503037,0.531576,1
2830,0.51043,0.538609,0.363251,0.493153,0.581699,0.52978,0.389544,0.460748,0.7456,1
2831,0.363528,0.364767,0.645893,0.631928,0.581699,0.554712,0.48826,0.677551,0.303279,1
2832,0.613873,0.655546,0.482468,0.4362,0.364027,0.588189,0.527347,0.423586,0.574692,1
2833,0.582103,0.626684,0.388419,0.55046,0.657369,0.490192,0.427765,0.832716,0.66161,1
2834,0.662256,0.821893,0.633194,0.602269,0.326921,0.565057,0.52801,0.499603,0.396976,1
2835,0.501544,0.565012,0.197547,0.508317,0.71529,0.444499,0.471533,0.547577,0.454838,0
2836,0.559526,0.732368,0.214654,0.625414,0.750326,0.458409,0.336527,0.615824,0.533366,0
2837,0.474552,0.562155,0.226413,0.657699,0.602151,0.191657,0.526998,0.516183,0.467122,0
2838,0.482958,0.613367,0.522703,0.655269,0.609609,0.603018,0.694049,0.485012,0.548347,1
2839,0.517392,0.542455,0.483548,0.481033,0.581699,0.246357,0.458044,0.404967,0.626504,1
2840,0.570761,0.594338,0.437244,0.560374,0.581699,0.798303,0.449916,0.556996,0.323486,1
2841,0.543751,0.645869,0.23794,0.597307,0.646791,0.279074,0.490217,0.447469,0.28164,0
2842,0.434357,0.489612,0.508981,0.569255,0.538938,0.554281,0.352414,0.653489,0.121344,1
2843,0.563459,0.805758,0.25352,0.612249,0.581699,0.541062,0.184886,0.630886,0.292695,0
2844,0.475631,0.489523,0.271038,0.525973,0.644537,0.442723,0.552416,0.557141,0.476412,0
2845,0.505771,0.58352,0.380492,0.426485,0.414666,0.496359,0.144841,0.45809,0.332908,1
2846,0.515928,0.479261,0.344692,0.431524,0.581699,0.444323,0.370819,0.63812,0.475753,0
2847,0.505771,0.534226,0.661521,0.553518,0.45829,0.587808,0.541769,0.578894,0.31681,1
2848,0.459123,0.433158,0.195291,0.574932,0.702446,0.299482,0.686992,0.535421,0.274996,0
2849,0.358813,0.3248,0.241681,0.56642,0.797995,0.478092,0.461498,0.578003,0.572386,0
2850,0.505771,0.524591,0.418262,0.451261,0.539517,0.572832,0.449778,0.678047,0.442276,1
2851,0.583143,0.536035,0.444847,0.396124,0.291805,0.608888,0.391779,0.561829,0.420323,1
2852,0.505771,0.563855,0.282153,0.528561,0.515673,0.433334,0.603792,0.631578,0.3946,0
2853,0.376583,0.487141,0.306939,0.677966,0.902546,0.36465,0.341129,0.51182,0.4942,0
2854,0.493077,0.57851,0.289413,0.52415,0.581699,0.735324,0.366862,0.465985,0.571731,0
2855,0.533326,0.599887,0.268589,0.397985,0.674945,0.310262,0.150736,0.372519,0.66963,0
2856,0.528404,0.771337,0.433612,0.604696,0.659355,0.34099,0.599534,0.817193,0.307899,0
2857,0.505771,0.389906,0.487902,0.42619,0.349592,0.227794,0.448454,0.623015,0.503608,1
2858,0.505771,0.648864,0.297906,0.444173,0.652492,0.32428,0.309172,0.490186,0.369931,0
2859,0.395681,0.555982,0.339874,0.741707,0.742987,0.447414,0.488731,0.538948,0.435935,0
2860,0.526869,0.55039,0.27682,0.489272,0.735812,0.307574,0.565069,0.609662,0.484068,0
2861,0.665615,0.979013,0.396953,0.567159,0.648146,0.515908,0.376719,0.550549,0.603653,1
2862,0.47871,0.440032,0.276752,0.472717,0.57289,0.390738,0.330569,0.416793,0.516062,0
2863,0.396255,0.490449,0.444898,0.722825,0.708819,0.725995,0.358822,0.633939,0.566964,1
2864,0.642987,0.783781,0.247248,0.479192,0.642008,0.664855,0.760362,0.493066,0.47776,0
2865,0.652198,0.7955,0.157755,0.44305,0.633903,0.63184,0.336177,0.527693,0.627991,0
2866,0.29128,0.502083,0.158517,0.814596,0.581699,0.221023,0.287455,0.516162,0.63132,0
2867,0.508944,0.588754,0.268948,0.556301,0.543989,0.390343,0.64187,0.743209,0.464752,0
2868,0.967231,0.508447,0.215987,0.501296,0.581699,0.401814,0.495888,0.597999,0.393116,0
2869,0.51223,0.550354,0.21085,0.423524,0.631417,0.446122,0.64763,0.420563,0.143523,0
2870,0.505771,0.467749,0.421668,0.583738,0.651732,0.270448,0.469271,0.725989,0.55978,1
2871,0.49841,0.433141,0.300486,0.48984,0.637274,0.266648,0.39596,0.387188,0.393387,0
2872,0.454083,0.521247,0.237445,0.454203,0.581699,0.605829,0.638433,0.558877,0.713193,0
2873,0.505771,0.666951,0.251351,0.521806,0.479358,0.393203,0.369178,0.397054,0.569908,0
2874,0.595674,0.464884,0.202096,0.518537,0.581699,0.473637,0.587312,0.820313,0.507411,0
2875,0.448354,0.474558,0.414896,0.50072,0.581699,0.461132,0.243984,0.568119,0.333577,1
2876,0.781962,0.360732,0.44906,0.542242,0.581699,0.341728,0.580326,0.685977,0.314297,1
2877,0.705128,0.242805,0.453024,0.650354,0.599511,0.540287,0.24206,0.519976,0.416386,1
2878,0.308371,0.645948,0.440719,0.511635,0.559422,0.463152,0.57291,0.345994,0.496933,1
2879,0.301967,0.558651,0.210182,0.515112,0.698358,0.386769,0.790164,0.614394,0.572817,0
2880,0.29572,0.747819,0.66177,0.579455,0.387662,0.438967,0.648532,0.493112,0.324746,1
2881,0.382143,0.530941,0.516773,0.61572,0.563114,0.437157,0.366904,0.446841,0.45164,1
2882,0.541287,0.570559,0.322194,0.457194,0.581699,0.587556,0.451181,0.437278,0.388319,0
2883,0.550724,0.460364,0.503993,0.615283,0.400135,0.447716,0.272798,0.41219,0.462974,1
2884,0.595053,0.549758,0.469556,0.554537,0.497951,0.433222,0.479434,0.672469,0.18114,1
2885,0.465069,0.513076,0.324446,0.485925,0.681718,0.326043,0.483049,0.81542,0.475047,0
2886,0.505771,0.575295,0.137043,0.467941,0.637812,0.731058,0.724864,0.447781,0.506475,0
2887,0.495308,0.655668,0.222977,0.445675,0.433349,0.387738,0.598157,0.53578,0.522022,0
2888,0.615618,0.762314,0.185111,0.473419,0.581699,0.283735,0.50311,0.60805,0.508856,0
2889,0.604355,0.686998,0.210781,0.401274,0.581699,0.640766,0.557144,0.596401,0.61987,0
2890,0.286018,0.591435,0.533622,0.510093,0.581699,0.302445,0.47142,0.468726,0.566449,1
2891,0.268721,0.538979,0.734392,0.655466,0.554344,0.545139,0.247594,0.684876,0.66857,1
2892,0.271081,0.475171,0.44098,0.479767,0.581699,0.321772,0.38889,0.592815,0.328055,1
2893,0.404338,0.672192,0.265442,0.462695,0.469307,0.357194,0.638925,0.618558,0.674265,0
2894,0.671153,0.643189,0.418749,0.551021,0.490341,0.563618,0.562334,0.472457,0.596721,1
2895,0.953563,0.382109,0.2979,0.498315,0.58479,0.47103,0.574428,0.690769,0.204401,0
2896,0.505771,0.497861,0.33719,0.478352,0.550181,0.374746,0.622367,0.531427,0.4398,0
2897,0.558422,0.629898,0.220358,0.471369,0.450809,0.488085,0.402484,0.535766,0.599862,0
2898,0.505771,0.629183,0.117218,0.36286,0.581699,0.242841,0.418175,0.323497,0.53259,0
2899,0.10227,0.655436,0.207143,0.458925,0.541811,0.548905,0.376756,0.490038,0.661456,0
2900,0.49786,0.491333,0.520746,0.552702,0.704348,0.25235,0.465565,0.562336,0.534182,1
2901,0.775133,0.432765,0.206321,0.575337,0.581699,0.713715,0.520555,0.532673,0.547365,0
2902,0.470572,0.71642,0.38712,0.503244,0.411148,0.261308,0.270139,0.378468,0.523058,1
2903,0.643168,0.634976,0.266375,0.451827,0.581699,0.40169,0.53015,0.539718,0.392871,0
2904,0.505771,0.414038,0.184899,0.498511,0.581699,0.37134,0.349406,0.634101,0.552908,0
2905,0.309163,0.524986,0.49702,0.553729,0.563313,0.633429,0.344327,0.582729,0.427023,1
2906,0.529845,0.710477,0,0.33242,0.588295,0.314095,0.698141,0.700253,0.382078,0
2907,0.232976,0.5206,0.466932,0.593154,0.581699,0.424456,0.42807,0.46533,0.535199,1
2908,0.505771,0.697612,0.196982,0.47403,0.369633,0.525473,0.477757,0.633313,0.622455,0
2909,0.566345,0.666759,0.281151,0.464955,0.581699,0.36289,0.447499,0.769216,0.371256,0
2910,0.569666,0.429038,0.276844,0.520563,0.722286,0.318907,0.630625,0.610851,0.350941,0
2911,0.678868,0.53566,0.322222,0.557001,0.487683,0.351467,0.465876,0.629301,0.546992,0
2912,0.36848,0.259934,0.551196,0.56518,0.791059,0.251319,0.56567,0.588071,0.50002,1
2913,0.280248,0.653895,0.392068,0.52046,0.581699,0.19394,0.658787,0.495268,0.592358,1
2914,0.505771,0.529686,0.222171,0.531797,0.653229,0.522554,0.30866,0.532673,0.420352,0
2915,0.417841,0.661988,0.445182,0.48712,0.420512,0.725563,0.486918,0.542799,0.414788,1
2916,0.420776,0.495567,0.568071,0.55181,0.61015,0.174974,0.48003,0.501888,0.552236,1
2917,0.425963,0.636941,0.395931,0.459436,0.502647,0.180138,0.497646,0.319683,0.43067,0
2918,0.436197,0.594948,0.642124,0.623475,0.624311,0.363914,0.409845,0.686506,0.467946,1
2919,0.492781,0.588354,0.247943,0.511383,0.467465,0.37654,0.516158,0.534304,0.423229,0
2920,0.577987,0.556931,0.429377,0.498918,0.581699,0.438406,0.444393,0.259034,0.552095,1
2921,0.543713,0.519532,0.144765,0.38139,0.569782,0.69241,0.575072,0.524048,0.953819,0
2922,0.634784,0.482901,0.422641,0.661993,0.563086,0.344797,0.590753,0.387289,0.620381,1
2923,0.466578,0.42063,0.130034,0.492332,0.777878,0.733659,0.601384,0.440399,0.595448,0
2924,0.55957,0.564896,0.178197,0.461409,0.755306,0.274101,0.539333,0.382873,0.530247,0
2925,0.825941,0.462512,0.312587,0.48091,0.577923,0.323207,0.587338,0.305797,0.69148,0
2926,0.484491,0.539553,0.41122,0.536075,0.521053,0.443485,0.380018,0.613409,0.759802,1
2927,0.592055,0.594942,0.179179,0.47229,0.658588,0.600856,0.494198,0.505119,0.402822,0
2928,0.069684,0.630313,0.506092,0.568578,0.581421,0.450512,0.725899,0.532673,0.204953,1
2929,0.537784,0.645318,0.12821,0.466025,0.511976,0.345987,0.565592,0.515388,0.414901,0
2930,0.697476,0.260189,0.631471,0.703141,0.713661,0.578549,0.489185,0.474235,0.297707,1
2931,0.727976,0.595356,0.218518,0.483168,0.477371,0.501676,0.582826,0.58398,0.369337,0
2932,0.208941,0.772696,0.638886,0.572849,0.495417,0.387788,0.349012,0.55573,0.421363,1
2933,0.505771,0.555801,0.479308,0.596031,0.620802,0.515368,0.680079,0.532673,0.298345,1
2934,0.475557,0.573507,0.304125,0.499587,0.665845,0.654734,0.222489,0.537041,0.45735,0
2935,0.500374,0.625662,0.431428,0.547869,0.581153,0.34644,0.424701,0.796899,0.404588,1
2936,0.505771,0.473893,0.570113,0.579885,0.647906,0.350019,0.588176,0.570924,0.437064,1
2937,0.444846,0.492858,0.634665,0.61803,0.581699,0.612296,0.522906,0.372423,0.595495,1
2938,0.456626,0.613886,0.312,0.434787,0.438046,0.308976,0.489757,0.331397,0.561832,0
2939,0.434859,0.416575,0.381672,0.575075,0.692653,0.36108,0.439219,0.604631,0.514858,0
2940,0.282956,0.455572,0.389245,0.59911,0.74426,0.460447,0.679896,0.479438,0.49971,0
2941,0.305369,0.660197,0.423236,0.483225,0.434328,0.572359,0.533839,0.534765,0.431623,1
2942,0.521565,0.642151,0.38164,0.563761,0.429308,0.534834,0.242332,0.553311,0.374494,1
2943,0.778106,0.472637,0.416732,0.572041,0.520975,0.352737,0.585138,0.341359,0.413116,1
2944,0.485578,0.546568,0.583895,0.524447,0.581699,0.505387,0.332898,0.468399,0.401139,1
2945,0.821193,0.538853,0.227189,0.538804,0.519742,0.307836,0.656005,0.662102,0.318066,0
2946,0.414874,0.53713,0.702548,0.549262,0.434391,0.252418,0.492223,0.410157,0.636994,1
2947,0.505771,0.493627,0.330677,0.546475,0.579834,0.305819,0.688852,0.537732,0.64977,0
2948,0.405666,0.488637,0.288775,0.562551,0.581699,0.638989,0.498826,0.655657,0.348283,0
2949,0.55595,0.541851,0.401739,0.485049,0.573918,0.33449,0.378015,0.110376,0.67983,1
2950,0.451176,0.506355,0.53083,0.610347,0.526114,0.492879,0.461434,0.482965,0.652814,1
2951,0.61467,0.61522,0.371883,0.552482,0.581699,0.145518,0.555285,0.371271,0.418855,0
2952,0.505771,0.419115,0.426235,0.639661,0.684209,0.388411,0.390354,0.532673,0.706304,1
2953,0.504111,0.47242,0.210294,0.544842,0.677011,0.37117,0.542388,0.430821,0.574098,0
2954,0.346436,0.505072,0.533399,0.559238,0.468022,0.369351,0.323018,0.684882,0.460462,1
2955,0.505771,0.562883,0.513665,0.47848,0.581699,0.348846,0.431435,0.53805,0.628686,1
2956,0.32578,0.429251,0.371361,0.597748,0.635722,0.248837,0.435408,0.637492,0.505506,0
2957,0.652202,0.58874,0.185904,0.488664,0.560731,0.573879,0.347665,0.541856,0.307078,0
2958,0.505771,0.499434,0.259238,0.476903,0.643601,0.358524,0.345427,0.302636,0.262978,0
2959,0.302397,0.535173,0.358991,0.529535,0.70689,0.304854,0.485027,0.497139,0.39056,0
2960,0.39793,0.516142,0.423883,0.663856,0.661464,0.441661,0.535131,0.71384,0.469145,1
2961,0.505771,0.391326,0.370909,0.623391,0.797051,0.425447,0.53997,0.682728,0.63825,0
2962,0.609082,0.616495,0.050769,0.416284,0.59265,0.759151,0.487615,0.66405,0.226777,0
2963,0.32649,0.535148,0.721424,0.601053,0.581699,0.488399,0.603149,0.634991,0.573679,1
2964,0.635981,0.532421,0.213419,0.408211,0.552294,0.237586,0.572037,0.492372,0.551176,0
2965,0.675709,0.636445,0.231983,0.504025,0.467989,0.440076,0.263186,0.544927,0.35411,0
2966,0.431449,0.334935,0.330868,0.505595,0.649356,0.536481,0.524224,0.426255,0.815198,1
2967,0.505771,0.448815,0.329873,0.512275,0.676616,0.302149,0.544183,0.507212,0.478149,0
2968,0.333107,0.448036,0.675328,0.655481,0.663054,0.343905,0.539236,0.485801,0.433408,1
2969,0.409024,0.523484,0.584149,0.603887,0.709525,0.221215,0.397269,0.482341,0.465549,1
2970,0.780936,0.417106,0.304167,0.527065,0.581699,0.720881,0.489549,0.486383,0.462278,0
2971,0.305823,0.512716,0.361367,0.517078,0.557227,0.21895,0.539267,0.664091,0.55231,0
2972,0.567749,0.544675,0.382247,0.528098,0.581699,0.372967,0.485697,0.634715,0.461547,0
2973,0.487546,0.469397,0.205529,0.425865,0.752203,0.464809,0.521891,0.839618,0.256094,0
2974,0.520384,0.441497,0.280021,0.708625,0.753038,0.335234,0.500403,0.649494,0.424368,0
2975,0.427496,0.483672,0.540562,0.605442,0.669562,0.369824,0.70007,0.400802,0.385456,1
2976,0.383499,0.737159,0.256997,0.4747,0.42085,0.268136,0.516642,0.351304,0.432574,0
2977,0.286899,0.755135,0.464506,0.547052,0.459308,0.456234,0.27225,0.572797,0.561001,1
2978,0.505771,0.749726,0.158246,0.28623,0.581699,0.320573,0.349297,0.475534,0.325306,0
2979,0.551357,0.538918,0.223595,0.515346,0.61544,0.422691,0.560796,0.718799,0.271284,0
2980,0.427409,0.631594,0.297472,0.493336,0.533417,0.45826,0.648903,0.42936,0.453655,0
2981,0.552329,0.433654,0.297585,0.533922,0.581699,0.47547,0.418061,0.620582,0.454716,0
2982,0.631991,0.51967,0.186912,0.494043,0.714689,0.358446,0.540962,0.689228,0.509255,0
2983,0.540131,0.445218,0.376531,0.566053,0.567288,0.377898,0.534112,0.535516,0.488211,0
2984,0.625611,0.461735,0.41447,0.604169,0.581699,0.333004,0.488264,0.37682,0.566152,1
2985,0.505771,0.511489,0.467451,0.601828,0.718714,0.420997,0.320908,0.507029,0.336241,1
2986,0.27378,0.621316,0.381145,0.479327,0.634905,0.419159,0.654159,0.471887,0.627465,1
2987,0.266438,0.663303,0.27209,0.52017,0.552567,0.481626,0.31196,0.376089,0.660433,0
2988,0.414398,0.560265,0.246394,0.509483,0.567941,0.174171,0.674808,0.443442,0.56256,0
2989,0.262745,0.508048,0.374058,0.531753,0.581699,0.295627,0.304217,0.541271,0.572908,0
2990,0.367399,0.482243,0.532287,0.5978,0.566534,0.363304,0.44993,0.532673,0.311243,1
2991,0.473447,0.549286,0.255974,0.560932,0.605106,0.448423,0.490641,0.309162,0.569948,0
2992,0.505771,0.539194,0.299988,0.539604,0.547719,0.649453,0.515892,0.651805,0.62637,0
2993,0.221577,0.547918,0.736014,0.584708,0.555759,0.429709,0.510733,0.436763,0.529037,1
2994,0.321256,0.531406,0.450651,0.51306,0.572196,0.654968,0.782315,0.653306,0.664727,1
2995,0.398866,0.567026,0.487291,0.53709,0.516035,0.323636,0.45912,0.528494,0.454289,1
2996,0.505771,0.571775,0.257995,0.531038,0.762632,0.48581,0.668119,0.562394,0.644387,0
2997,0.737948,0.431742,0.254553,0.47314,0.659477,0.340326,0.446143,0.416344,0.231318,0
2998,0.6522,0.553518,0.458946,0.559337,0.581699,0.476324,0.408449,0.51468,0.297922,1
2999,0.329918,0.55093,0.440903,0.537502,0.687602,0.228724,0.45367,0.532673,0.543036,1
3000,0.495089,0.580927,0.394681,0.537769,0.52501,0.516874,0.547705,0.602813,0.651911,1
3001,0.400154,0.787624,0.484997,0.521529,0.581699,0.609803,0.529892,0.236188,0.49481,1
3002,0.53718,0.657004,0.358582,0.557479,0.581699,0.635931,0.546384,0.731831,0.525197,1
3003,0.398748,0.45304,0.38078,0.599555,0.668929,0.473188,0.546822,0.765099,0.49123,0
3004,0.570911,0.530219,0.234614,0.537527,0.577986,0.502081,0.332454,0.539042,0.494027,0
3005,0.586454,0.590478,0.366109,0.564852,0.581699,0.314991,0.477019,0.564895,0.428562,0
3006,0.707281,0.577871,0.21114,0.432629,0.581699,0.428517,0.46444,0.605789,0.525042,0
3007,0.505771,0.521693,0.225658,0.523284,0.659474,0.381834,0.331236,0.28269,0.431526,0
3008,0.671848,0.369529,0.440991,0.588283,0.581699,0.380028,0.581023,0.464252,0.488511,1
3009,0.68485,0.5383,0.181113,0.463051,0.674455,0.248857,0.416408,0.297051,0.608228,0
3010,0.330943,0.585712,0.475915,0.451944,0.497206,0.480418,0.330159,0.895469,0.624288,1
3011,0.492937,0.388267,0.341219,0.593088,0.701647,0.469992,0.476755,0.572629,0.409623,0
3012,0.556826,0.321586,0.429571,0.563861,0.845097,0.506995,0.472987,0.411751,0.412035,0
3013,0.505771,0.609375,0.321625,0.512769,0.483158,0.332248,0.328213,0.685768,0.594165,0
3014,0,0.607251,0.806742,0.590649,0.581699,0.70291,0.210817,0.624482,0.65775,1
3015,0.599876,0.471233,0.29032,0.550992,0.581699,0.554126,0.31231,0.446023,0.2227,0
3016,0.446796,0.385243,0.39397,0.615232,0.677056,0.198578,0.394776,0.734474,0.320757,0
3017,0.821204,0.503073,0.195914,0.603912,0.557933,0.13823,0.286363,0.546283,0.672186,0
3018,0.505771,0.556002,0.661025,0.501603,0.383138,0.177821,0.487177,0.47169,0.483729,1
3019,0.667667,0.559323,0.220481,0.546516,0.548375,0.578749,0.392135,0.349573,0.409369,0
3020,0.830081,0.566931,0.242689,0.584299,0.581699,0.464383,0.744536,0.495398,0.382316,0
3021,0.738405,0.420194,0.352991,0.590804,0.645341,0.664014,0.456564,0.449896,0.683136,1
3022,0.505771,0.539079,0.354619,0.499278,0.655345,0.385143,0.46051,0.623613,0.473618,0
3023,0.377713,0.716711,0.450081,0.530964,0.31203,0.494162,0.431118,0.445428,0.351869,1
3024,0.544109,0.479391,0.492352,0.516682,0.569332,0.304169,0.429148,0.531272,0.425093,1
3025,0.510652,0.562768,0.374961,0.447422,0.491442,0.210717,0.590904,0.337126,0.441867,0
3026,0.617956,0.388531,0.255809,0.482112,0.824406,0.460533,0.477269,0.395719,0.343432,0
3027,0.377857,0.46177,0.465897,0.646167,0.534091,0.5232,0.442464,0.419739,0.393708,1
3028,0.383542,0.447613,0.441313,0.603827,0.701802,0.385321,0.455248,0.657155,0.360651,0
3029,0.624805,0.548729,0.493009,0.545792,0.581699,0.266072,0.446976,0.762523,0.626717,1
3030,0.574314,0.555713,0.208159,0.496623,0.647302,0.371655,0.341012,0.347941,0.296426,0
3031,0.610745,0.577059,0.166356,0.479844,0.559967,0.290877,0.45201,0.337107,0.653029,0
3032,0.552809,0.581563,0.494061,0.584107,0.455681,0.161252,0.648022,0.418159,0.415161,1
3033,0.507471,0.559302,0.29181,0.635783,0.660821,0.292466,0.244539,0.394645,0.626405,0
3034,0.499158,0.351035,0.542417,0.50254,0.581699,0.397866,0.600779,0.433011,0.085022,1
3035,0.562127,0.495604,0.30026,0.552566,0.581699,0.320173,0.5893,0,0.523648,0
3036,0.632835,0.533655,0.326905,0.482791,0.577648,0.515421,0.601133,0.423253,0.590912,0
3037,0.528396,0.498415,0.319773,0.631703,0.733431,0.431804,0.419289,0.499748,0.472138,0
3038,0.369635,0.573419,0.206064,0.528188,0.67234,0.559072,0.703397,0.6197,0.377203,0
3039,0.505771,0.496156,0.525522,0.628511,0.581699,0.474604,0.381912,0.642533,0.678293,1
3040,0.390784,0.523704,0.592958,0.549327,0.551429,0.353911,0.524191,0.422085,0.452641,1
3041,0.479415,0.67022,0.387732,0.490574,0.581699,0.493175,0.448731,0.62836,0.37127,0
3042,0.352365,0.416234,0.450695,0.579703,0.536702,0.545275,0.462136,0.619851,0,0
3043,0.447207,0.510098,0.549833,0.60973,0.603635,0.595982,0.470019,0.375721,0.557267,1
3044,0.54954,0.641879,0.353579,0.523635,0.415509,0.390551,0.408006,0.506376,0.245925,0
3045,0.401629,0.533317,0.259389,0.513189,0.589858,0.396908,0.54271,0.615706,0.480801,0
3046,0.441063,0.528111,0.372463,0.606365,0.600099,0.202198,0.431998,0.62945,0.410909,0
3047,0.359958,0.533103,0.312212,0.535637,0.597198,0.584626,0.326769,0.489944,0.317065,0
3048,0.554067,0.624408,0.265279,0.51652,0.581699,0.316976,0.415888,0.660082,0.457617,0
3049,0.700714,0.332569,0.270883,0.582386,0.659113,0.448879,0.335293,0.274208,0.772963,0
3050,0.605685,0.556177,0.239398,0.550098,0.581699,0.530917,0.55963,0.42508,0.523968,0
3051,0.633062,0.486896,0.281484,0.530701,0.646199,0.607846,0.506913,0.485702,0.814648,0
3052,0.439696,0.431137,0.491962,0.676626,0.581699,0.297526,0.582558,0.6052,0.42276,1
3053,0.52052,0.624839,0.291671,0.442941,0.421355,0.393595,0.533976,0.429487,0.388403,0
3054,0.647564,0.425267,0.32738,0.566432,0.498728,0.397681,0.30569,0.681354,0.53876,0
3055,0.665323,0.565521,0.373792,0.476326,0.478841,0.334978,0.544168,0.63625,0.310633,0
3056,0.697138,0.490833,0.322207,0.498415,0.581699,0.283485,0.676757,0.689301,0.743382,0
3057,0.570386,0.553889,0.283421,0.502523,0.476009,0.342918,0.309934,0.536684,0.6244,0
3058,0.579168,0.562505,0.433605,0.629599,0.553792,0.326953,0.579965,0.532673,0.624571,1
3059,0.588792,0.606115,0.478442,0.623337,0.581699,0.582322,0.540298,0.724781,0.397186,1
3060,0.734956,0.418395,0.304538,0.513072,0.611275,0.70681,0.638205,0.596743,0.387628,0
3061,0.284931,0.611712,0.654354,0.558546,0.513594,0.38045,0.344319,0.699481,0.559541,1
3062,0.505771,0.587974,0.733287,0.668965,0.581699,0.293607,0.515452,0.532673,0.450459,1
3063,0.608546,0.520737,0.234098,0.489291,0.581699,0.55442,0.349295,0.457916,0.373842,0
3064,0.505771,0.442941,0.323182,0.476374,0.581699,0.294446,0.349905,0.332347,0.459823,0
3065,0.505771,0.638193,0.339396,0.579915,0.600419,0.264059,0.608635,0.489027,0.60461,0
3066,0.321097,0.677422,0.225919,0.468781,0.475283,0.351353,0.580596,0.472703,0.66419,0
3067,0.505771,0.528341,0.286607,0.448998,0.581699,0.632378,0.326344,0.532673,0.459192,0
3068,0.401467,0.651291,0.452025,0.482933,0.511967,0.406705,0.564479,0.630375,0.376153,1
3069,0.610928,0.551948,0.16635,0.488136,0.581699,0.235677,0.798558,0.361147,0.313608,0
3070,0.505771,0.612299,0.337664,0.545939,0.495692,0.154468,0.500107,0.843281,0.455728,0
3071,0.729283,0.366159,0.297049,0.552326,0.743171,0.400596,0.494392,0.7175,0.503422,0
3072,0.505771,0.572384,0.353138,0.495112,0.57573,0.27469,0.512132,0.453268,0.207153,0
3073,0.470586,0.479764,0.573712,0.555252,0.581699,0.604984,0.534457,0.655234,0.476887,1
3074,0.611313,0.54937,0.134871,0.347919,0.546553,0.475795,0.465579,0.597006,0.471966,0
3075,0.601922,0.407187,0.316151,0.572397,0.611155,0.365837,0.595672,0.429114,0.528363,0
3076,0.514824,0.462013,0.254087,0.516794,0.581699,0.654204,0.458665,0.485091,0.537945,0
3077,0.730549,0.647415,0.151465,0.43426,0.525486,0.334084,0.501314,0.490987,0.630805,0
3078,0.81361,0.355142,0.260306,0.490166,0.581699,0.650519,0.378973,0.559769,0.15643,0
3079,0.505771,0.551162,0.086291,0.363745,0.602471,0.361567,0.327401,0.405717,0.333979,0
3080,0.470003,0.628032,0.44901,0.457618,0.581699,0.512616,0.355181,0.428113,0.625155,1
3081,0.772702,0.341165,0.388614,0.5957,0.739688,0.315022,0.486924,0.457777,0.404772,0
3082,0.363834,0.739527,0.491329,0.498382,0.392085,0.157639,0.485917,0.568224,0.586608,1
3083,0.37602,0.344958,0.414327,0.489142,0.816016,0.458637,0.202734,0.585272,0.690157,1
3084,0.569378,0.375785,0.484463,0.572223,0.78638,0.341742,0.658342,0.62811,0.187018,0
3085,0.596454,0.697822,0.276767,0.450642,0.408614,0.198287,0.321972,0.503925,0.388963,0
3086,0.505771,0.497595,0.360698,0.533495,0.748407,0.398712,0.383739,0.512455,0.35957,0
3087,0.288004,0.553647,0.236422,0.479897,0.581699,0.590582,0.551754,0.621083,0.636082,0
3088,0.152038,0.526908,0.403642,0.579708,0.723005,0.510731,0.463084,0.451151,0.45228,1
3089,0.703004,0.618316,0.106134,0.444376,0.579704,0.438655,0.389484,0.365758,0.516014,0
3090,0.547473,0.374458,0.55162,0.657088,0.788216,0.445655,0.498733,0.532673,0.385216,1
3091,0.505771,0.676701,0.441274,0.543675,0.491005,0.540837,0.529608,0.468812,0.330562,1
3092,0.518594,0.532535,0.128166,0.494875,0.754354,0.228842,0.528928,0.521539,0.53551,0
3093,0.681277,0.555422,0.32383,0.526551,0.496887,0.269421,0.55311,0.572529,0.297704,0
3094,0.141813,0.613177,0.373006,0.50233,0.610783,0.27908,0.356254,0.632761,0.467592,0
3095,0.517785,0.495622,0.538574,0.534965,0.549286,0.286562,0.49671,0.552559,0.530531,1
3096,0.497729,0.474389,0.651399,0.671522,0.591042,0.371059,0.461432,0.605521,0.412676,1
3097,0.439325,0.599899,0.241302,0.406453,0.541132,0.171307,0.408065,0.602706,0.635382,0
3098,0.450054,0.478871,0.416168,0.671588,0.603621,0.485,0.454519,0.532673,0.805088,1
3099,0.494343,0.619048,0.216011,0.415486,0.581699,0.211466,0.339256,0.496469,0.655272,0
3100,0.462992,0.480564,0.564436,0.640821,0.593733,0.564673,0.54442,0.480414,0.671651,1
3101,0.505771,0.585797,0.264488,0.432194,0.51696,0.320771,0.597761,0.864568,0.568154,0
3102,0.522114,0.529724,0.312319,0.572373,0.504744,0.428564,0.40783,0.899364,0.491246,0
3103,0.426234,0.506555,0.501191,0.542396,0.59672,0.249151,0.400454,0.580354,0.465975,1
3104,0.616519,0.424166,0.239051,0.542173,0.630489,0.459247,0.561588,0.465998,0.414245,0
3105,0.655187,0.428941,0.180575,0.490556,0.691857,0.41784,0.427328,0.586037,0.422839,0
3106,0.505771,0.396606,0.37374,0.54151,0.585052,0.344089,0.653147,0.655786,0.778011,1
3107,0.238402,0.612368,0.689418,0.608897,0.581699,0.298641,0.453244,0.422052,0.349819,1
3108,0.817839,0.504986,0.197589,0.525525,0.547769,0.563916,0.539554,0.619933,0.702761,0
3109,0.448834,0.572902,0.321551,0.526524,0.440888,0.507853,0.606405,0.516174,0.573033,1
3110,0.505771,0.525862,0.412755,0.616789,0.581699,0.497326,0.553919,0.467477,0.395859,1
3111,0.625841,0.598476,0.227366,0.472308,0.581699,0.537048,0.398536,0.482704,0.609482,0
3112,0.472624,0.535616,0.557526,0.569913,0.581699,0.412657,0.430366,0.382989,0.410735,1
3113,0.552469,0.665553,0.352273,0.513236,0.581699,0.373573,0.491707,0.746048,0.448375,0
3114,0.49797,0.502281,0.453797,0.537183,0.627059,0.406715,0.677506,0.287526,0.335857,1
3115,0.33637,0.47774,0.360726,0.502722,0.790891,0.331867,0.612521,0.696002,0.455679,0
3116,0.373572,0.468936,0.453992,0.5672,0.809344,0.452684,0.468338,0.584928,0.301685,0
3117,0.376728,0.652569,0.28379,0.467709,0.652187,0.538508,0.344797,0.532673,0.551035,0
3118,0.602389,0.643559,0.205439,0.456164,0.563966,0.402837,0.582392,0.585576,0.448995,0
3119,0.489133,0.680144,0.396269,0.410508,0.584816,0.272951,0.280279,0.62111,0.656305,1
3120,0.518825,0.409918,0.259559,0.605794,0.566562,0.519414,0.406699,0.347668,0.472779,0
3121,0.480948,0.521864,0.096417,0.578299,0.581699,0.42525,0.713078,0.792051,0.437832,0
3122,0.505771,0.765402,0.413379,0.357743,0.602333,0.427227,0.643435,0.540821,0.423889,1
3123,0.505771,0.672893,0.138051,0.433189,0.581699,0.383021,0.251829,0.559669,0.368638,0
3124,0.555548,0.675861,0.270238,0.451765,0.552617,0.592456,0.5975,0.483571,0.611332,0
3125,0.435981,0.496557,0.289898,0.541959,0.581699,0.268363,0.209018,0.472673,0.365485,0
3126,0.476127,0.392749,0.497307,0.612176,0.591351,0.427043,0.494312,0.641256,0.652969,1
3127,0.505771,0.611221,0.161737,0.490825,0.581699,0.3442,0.421104,0.665634,0.436339,0
3128,0.354275,0.61091,0.157076,0.516809,0.711599,0.605037,0.464622,0.419033,0.379097,0
3129,0.456993,0.73465,0.356878,0.355438,0.700207,0.267175,0.457868,0.781201,0.474294,0
3130,0.581453,0.385634,0.828699,0.586419,0.503419,0.423133,0.464445,0.521966,0.550726,1
3131,0.48933,0.672849,0.246561,0.453277,0.581699,0.449173,0.611057,0.655625,0.216267,0
3132,0.479627,0.50229,0.562134,0.485547,0.657637,0.214186,0.307528,0.401389,0.611619,1
3133,0.309794,0.580104,0.558804,0.505452,0.696169,0.609566,0.399312,0.357063,0.558071,1
3134,0.602378,0.412646,0.255857,0.631841,0.486091,0.522003,0.50206,0.573904,0.412468,0
3135,0.519587,0.544916,0.441293,0.582845,0.49953,0.207282,0.47554,0.534397,0.616422,1
3136,0.469942,0.506198,0.268923,0.477724,0.710281,0.391343,0.490269,0.498242,0.446882,0
3137,0.505771,0.700708,0.323206,0.356579,0.71232,0.254996,0.424745,0.668871,0.378734,0
3138,0.61793,0.512455,0.211586,0.50745,0.585872,0.381575,0.325263,0.350597,0.414876,0
3139,0.596972,0.419549,0.569204,0.574947,0.534901,0.389972,0.232639,0.542423,0.551379,1
3140,0.505771,0.708746,0.475766,0.430672,0.60037,0.492484,0.123626,0.532673,0.391867,1
3141,0.475624,0.613484,0.408031,0.503602,0.572443,0.767611,0.647322,0.661243,0.368876,1
3142,0.75027,0.284895,0.628579,0.65429,0.581699,0.86203,0.287901,0.413427,0.741247,1
3143,0.452313,0.505659,0.37356,0.605088,0.562396,0.091673,0.285113,0.488407,0.701267,0
3144,0.505771,0.606335,0.356574,0.45774,0.469395,0.264032,0.623354,0.367577,0.527233,0
3145,0.480745,0.495057,0.146747,0.599074,0.613787,0.243389,0.378039,0.451879,0.474937,0
3146,0.592699,0.493965,0.328299,0.528909,0.54852,0.199648,0.433073,0.498873,0.527363,0
3147,0.447091,0.300851,0.154561,0.777325,0.543588,0.38098,0.331295,0.346272,0.469303,0
3148,0.576866,0.309179,0.172319,0.717125,0.528279,0.521589,0.478385,0.583313,0.53722,0
3149,0.40936,0.639384,0.016927,0.480996,0.714466,0.767359,0.47789,0.497198,0.420837,0
3150,0.468811,0.703155,0.91944,0.392451,0.581699,0.409775,0.362143,0.567082,0.726593,1
3151,0.37884,0.665913,0.104336,0.449946,0.73801,0.497232,0.472462,0.624118,0.486769,0
3152,0.546277,0.411119,0.470882,0.53741,0.581699,0.449966,0.420785,0.538381,0.307936,1
3153,0.505771,0.332754,0.549433,0.727086,0.41568,0.555984,0.439252,0.564897,0.610464,1
3154,0.567961,0.500521,0.095029,0.529617,0.613003,0.179054,0.640015,0.690089,0.460745,0
3155,0.630867,0.46928,0.194563,0.5576,0.546139,0.37405,0.393929,0.52838,0.465969,0
3156,0.589345,0.496761,0.349647,0.533443,0.50046,0.404756,0.444113,0.576505,0.218323,0
3157,0.418612,0.701708,0.295553,0.445744,0.630768,0.542777,0.26043,0.355971,0.534551,0
3158,0.584436,0.505051,0.317233,0.576371,0.581699,0.330217,0.357149,0.444224,0.596566,0
3159,0.563541,0.384987,0.671355,0.634492,0.469448,0.30252,0.348375,0.540449,0.336048,1
3160,0.622392,0.443054,0.386132,0.611404,0.581699,0.520232,0.472065,0.512788,0.27835,0
3161,0.441852,0.684107,0.014416,0.453075,0.696233,0.445481,0.340759,0.803468,0.499199,0
3162,0.648551,0.633354,0.877003,0.512166,0.355199,0.352207,0.402486,0.818398,0.586448,1
3163,0.598537,0.42343,0.395496,0.614248,0.581699,0.434994,0.657087,0.505973,0.43483,0
3164,0.658711,0.377315,0.429868,0.606277,0.469257,0.629732,0.450259,0.315056,0.537767,1
3165,0.669335,0.400038,0.242756,0.580107,0.532317,0.425685,0.515172,0.871931,0.554131,0
3166,0.534827,0.3712,0.468201,0.642581,0.581699,0.61151,0.281093,0.464145,0.066426,1
3167,0.430596,0.646529,0.194144,0.451998,0.673128,0.562426,0.515398,0.589497,0.319925,0
3168,0.448808,0.656866,0.185214,0.467336,0.581699,0.407969,0.363206,0.710746,0.511248,0
3169,0.404746,0.343557,0.395079,0.754407,0.543317,0.577888,0.820088,0.618946,0.451281,1
3170,0.49895,0.624445,0.265162,0.476987,0.596692,0.544574,0.521243,0.566782,0.308527,0
3171,0.519526,0.462774,0.22798,0.586072,0.592689,0.246576,0.609496,0.466029,0.51927,0
3172,0.532119,0.528162,0.524255,0.448892,0.591241,0.684299,0.607674,0.459698,0.552166,1
3173,0.544151,0.56325,0.726014,0.427727,0.593897,0.485425,0.427266,0.59113,0.438589,1
3174,0.47844,0.547184,0.564062,0.462748,0.656854,0.436211,0.382248,0.532673,0.436411,1
3175,0.50195,0.502034,0.506199,0.569358,0.563081,0.379851,0.661359,0.648664,0.367303,1
3176,0.615069,0.281933,0.521438,0.743086,0.383639,0.281051,0.411777,0.431701,0.598298,1
3177,0.530256,0.482502,0.560386,0.593241,0.49652,0.434331,0.209422,0.53514,0.362147,1
3178,0.389763,0.624203,0.338995,0.506832,0.642225,0.228266,0.453229,0.463359,0.444219,0
3179,0.686636,0.17221,0.267257,0.688145,0.517842,0.61941,0.387434,0.541034,0.485235,0
3180,0.589066,0.259696,0.121936,0.686671,0.581699,0.695563,0.41384,0.584655,0.500401,0
3181,0.47437,0.524081,0.162541,0.494957,0.714039,0.419568,0.384799,0.522804,0.322311,0
3182,0.474719,0.543324,0.271606,0.504261,0.581699,0.566245,0.556029,0.364447,0.303268,0
3183,0.511748,0.600563,0.532474,0.464982,0.581699,0.541129,0.401677,0.466605,0.670865,1
3184,0.591791,0.377747,0.231204,0.680867,0.494508,0.246631,0.438799,0.919156,0.534063,0
3185,0.43643,0.679631,0.268324,0.440903,0.622262,0.448377,0.301131,0.532673,0.258609,0
3186,0.594047,0.230226,0.402152,0.715269,0.581699,0.522836,0.4625,0.625631,0.235545,0
3187,0.505771,0.498969,0.238974,0.55939,0.677005,0.444374,0.675859,0.604091,0.089313,0
3188,0.643191,0.458147,0.459564,0.635858,0.581699,0.612105,0.407617,0.300391,0.439594,1
3189,0.491894,0.594948,0.569685,0.447405,0.581699,0.644413,0.239277,0.218439,0.406458,1
3190,0.66383,0.528233,0.818399,0.465744,0.581699,0.32168,0.460763,0.794141,0.418204,1
3191,0.498942,0.311943,0.355032,0.643887,0.602902,0.620421,0.535505,0.738028,0.528682,1
3192,0.363869,0.637433,0.371665,0.518624,0.628074,0.516108,0.41512,0.627427,0.616551,1
3193,0.439288,0.511372,0.132758,0.578686,0.652192,0.468429,0.422234,0.423639,0.377093,0
3194,0.442121,0.642024,0.244782,0.432656,0.67466,0.818947,0.308717,0.576357,0.298236,0
3195,0.535571,0.501931,0.502517,0.565744,0.581699,0.515693,0.495183,0.585666,0.810927,1
3196,0.49752,0.418102,0.393902,0.687104,0.507794,0.540923,0.510041,0.827164,0.476332,1
3197,0.38658,0.816428,0.041282,0.424737,0.581699,0.290842,0.502212,0.534824,0.799839,0
3198,0.535935,0.505206,0.520131,0.570628,0.53113,0.510699,0.377361,0.345139,0.539897,1
3199,0.505771,0.586589,0.43854,0.449452,0.627958,0.395949,0.338963,0.657298,0.480833,1
3200,0.612932,0.385492,0.322619,0.572187,0.522355,0.593371,0.482053,0.595397,0.270967,0
3201,0.395004,0.582412,0.633725,0.484629,0.656394,0.430492,0.636516,0.490638,0.354977,1
3202,0.624568,0.545236,0.665329,0.470987,0.516083,0.253156,0.394759,0.53288,0.504627,1
3203,0.646599,0.2633,0.359282,0.70578,0.443807,0.333634,0.472737,0.514306,0.531238,0
3204,0.576947,0.282455,0.387651,0.659191,0.536014,0.379193,0.501133,0.502429,0.535048,1
3205,0.477293,0.656063,0.121241,0.437992,0.66624,0.127494,0.419174,0.519592,0.378111,0
3206,0.337951,0.665622,0.249506,0.490231,0.581699,0.355547,0.552526,0.513542,0.757779,0
3207,0.660101,0.291945,0.644364,0.666052,0.434609,0.534844,0.281015,0.525536,0.618047,1
3208,0.402022,0.525618,0.370008,0.58025,0.608014,0.45041,0.498081,0.401518,0.493788,0
3209,0.346986,0.63465,0.251983,0.590903,0.543687,0.413249,0.51075,0.677344,0.475812,0
3210,0.602177,0.537866,0.573555,0.497185,0.52759,0.17682,0.385792,0.37116,0.34107,1
3211,0.486972,0.623542,0.447042,0.46545,0.602043,0.610686,0.662329,0.550298,0.302192,1
3212,0.422411,0.463902,0.192487,0.627537,0.621765,0.348833,0.395817,0.522919,0.486628,0
3213,0.505771,0.761007,0.456901,0.441687,0.588194,0.647653,0.461797,0.548959,0.231431,1
3214,0.392877,0.784394,0.321646,0.344682,0.675915,0.444833,0.404643,0.411334,0.699099,0
3215,0.400616,0.814134,0.711902,0.297874,0.675698,0.471117,0.545699,0.49092,0.440066,1
3216,0.40066,0.611881,0.238153,0.520531,0.642591,0.25987,0.290403,0.328666,0.335541,0
3217,0.505771,0.184757,0.461277,0.798978,0.476786,0.566148,0.409296,0.686278,0.504649,1
3218,0.418559,0.872508,0.054507,0.291243,0.746234,0.464517,0.159509,0.3928,0.373725,0
3219,0.458408,0.588593,0.519709,0.541012,0.546493,0.188799,0.351305,0.532673,0.5219,1
3220,0.440752,0.529227,0.260815,0.530095,0.581699,0.606115,0.702386,0.603022,0.416375,0
3221,0.288147,0.929554,0.540144,0.31887,0.581699,0.547053,0.429702,0.578237,0.675882,1
3222,0.355676,0.70144,0.391535,0.410319,0.581699,0.378669,0.149089,0.50041,0.376068,0
3223,0.57839,0.62229,0.29211,0.45753,0.581699,0.341144,0.595642,0.48005,0.534899,0
3224,0.505771,0.546939,0.505051,0.553198,0.581699,0.588331,0.364422,0.687079,0.358394,1
3225,0.60491,0.308404,0.340154,0.598777,0.613585,0.313175,0.327316,0.517361,0.269804,0
3226,0.562204,0.59195,0.844099,0.457062,0.581699,0.6152,0.491567,0.678206,0.524034,1
3227,0.548543,0.553665,0.520142,0.569998,0.45945,0.703189,0.561092,0.31339,0.349315,1
3228,0.516185,0.58181,0.357541,0.431367,0.641161,0.301071,0.314217,0.536468,0.545872,0
3229,0.505771,0.565024,0.169478,0.507001,0.581699,0.355182,0.52917,0.58553,0.305523,0
3230,0.618508,0.244387,0.38081,0.656228,0.579572,0.239844,0.550156,0.422907,0.273355,0
3231,0.505771,0.646816,0.457646,0.433724,0.673809,0.414069,0.578806,0.837035,0.454887,1
3232,0.4543,0.549452,0.220358,0.55495,0.594862,0.423429,0.372257,0.462228,0.238844,0
3233,0.748972,0.323351,0.534451,0.629936,0.420196,0.410424,0.639258,0.481417,0.608667,1
3234,0.471673,0.520165,0.314382,0.471517,0.715085,0.480594,0.143088,0.671913,0.533336,0
3235,0.408094,0.539782,0.181191,0.600847,0.620933,0.207466,0.621842,0.357956,0.590117,0
3236,0.340534,0.758157,0.782956,0.424359,0.581699,0.715117,0.549485,0.358591,0.461973,1
3237,0.686417,0.652667,0.367271,0.394007,0.526424,0.372903,0.566604,0.605229,0.540434,1
3238,0.656175,0.44139,0.438949,0.555028,0.581699,0.554598,0.308331,0.402907,0.378873,1
3239,0.711478,0.444312,0.254722,0.531656,0.490802,0.3627,0.435402,0.574839,0.37522,0
3240,0.435879,0.57516,0.37904,0.603512,0.581699,0.347675,0.509287,0.554695,0.535218,0
3241,0.48519,0.704745,0.144047,0.476228,0.595179,0.314105,0.471359,0.362562,0.088439,0
3242,0.422181,0.702627,0.417049,0.348709,0.72973,0.491605,0.464246,0.48557,0.483552,1
3243,0.437558,0.703726,0.139394,0.421786,0.681823,0.326102,0.560019,0.380683,0.662329,0
3244,0.416865,0.832936,0.28553,0.243146,0.770295,0.481323,0.588211,0.57862,0.432783,0
3245,0.505771,0.51182,0.400459,0.53053,0.581699,0.654121,0.565489,0.448644,0.544846,1
3246,0.761955,0.45685,0.469431,0.525972,0.419379,0.182877,0.59332,0.441412,0.507765,1
3247,0.616307,0.502353,0.512707,0.526612,0.581699,0.281314,0.61488,0.498537,0.690274,1
3248,0.447151,0.595455,0.299751,0.532516,0.601631,0.307094,0.221924,0.662227,0.747517,0
3249,0.772011,0.54831,0.480959,0.425082,0.498883,0.352859,0.486698,0.382587,0.550679,1
3250,0.526565,0.365486,0.68529,0.596063,0.555481,0.63541,0.573429,0.502505,0.54622,1
3251,0.344685,0.67957,0.177674,0.476773,0.685784,0.329986,0.415569,0.369765,0.38062,0
3252,0.347773,0.766243,0.214747,0.354514,0.581699,0.257547,0.580539,0.448072,0.341388,0
3253,0.528246,0.518861,0.365161,0.622951,0.468796,0.40644,0.42534,0.508447,0.669358,1
3254,0.633008,0.305425,0.280967,0.570456,0.599758,0.381176,0.556023,0.428811,0.662712,0
3255,0.429212,0.644372,0.078467,0.555791,0.588355,0.2512,0.340228,0.28884,0.484466,0
3256,0.543373,0.410361,0.638094,0.585081,0.52,0.562506,0.427854,0.497187,0.392329,1
3257,0.477383,0.814966,0.30651,0.390153,0.589594,0.220756,0.68884,0.605736,0.710543,0
3258,0.474172,0.483854,0.155182,0.621838,0.581699,0.384059,0.398526,0.489315,0.702223,0
3259,0.66224,0.485424,0.266312,0.522153,0.511998,0.535463,0.422546,0.532673,0.545274,0
3260,0.505771,0.316675,0.142499,0.679005,0.581699,0.431453,0.247842,0.600634,0.425328,0
3261,0.25928,0.713678,0.402844,0.490495,0.675986,0.455694,0.425398,0.476638,0.624849,1
3262,0.598436,0.548,0.462239,0.479456,0.541081,0.556751,0.505329,0.279755,0.581337,1
3263,0.494545,0.773186,0.401791,0.403066,0.577314,0.745446,0.508928,0.412113,0.484655,1
3264,0.420936,0.69584,0.331751,0.469476,0.602949,0.388442,0.642288,0.511985,0.556003,0
3265,0.585525,0.564663,0.449557,0.479132,0.567811,0.460129,0.461719,0.504358,0.361473,1
3266,0.598065,0.441272,0.234817,0.563286,0.581699,0.49495,0.340346,0.305829,0.653499,0
3267,0.642136,0.60798,0.256139,0.465386,0.522486,0.365346,0.294985,0.440779,0.598193,0
3268,0.478753,0.579955,0.277902,0.575821,0.498565,0.258424,0.537061,0.228299,0.376817,0
3269,0.820786,0.17186,0.605322,0.697547,0.369089,0.451877,0.535355,0.331169,0.55195,1
3270,0.433544,0.505009,0.423895,0.578908,0.615572,0.409897,0.37807,0.484188,0.419685,1
3271,0.333436,0.530482,0.775947,0.533436,0.656047,0.603192,0.448062,0.535037,0.564534,1
3272,0.557775,0.530016,0.279263,0.603473,0.581699,0.368912,0.678284,0.532673,0.254915,0
3273,0.672822,0.465486,0.539101,0.547807,0.581699,0.438152,0.338662,0.560655,0.34957,1
3274,0.366197,0.664407,0.19149,0.46586,0.581699,0.387157,0.343638,0.622659,0.61612,0
3275,0.562477,0.535635,0.280484,0.560259,0.581699,0.255266,0.534114,0.632478,0.162441,0
3276,0.659925,0.445771,0.210968,0.623851,0.562642,0.704186,0.290986,0.631385,0.554391,0
3277,0.607453,0.372754,0.320462,0.593617,0.499415,0.372895,0.586471,0.573375,0.510799,0
3278,0.505771,0.430244,0.378992,0.630887,0.581699,0.481248,0.420497,0.418477,0.343749,0
3279,0.551612,0.333715,0.637669,0.715396,0.234015,0.351656,0.413663,0.42936,0.4294,1
3280,0.5068,0.527833,0.328514,0.49907,0.522266,0.217414,0.470088,0.542219,0.488092,0
3281,0.539677,0.668947,0.22908,0.446749,0.683818,0.437469,0.465604,0.532833,0.417576,0
3282,0.612515,0.617669,0.455097,0.629381,0.496555,0.375389,0.633973,0.439356,0.477239,1
3283,0.518152,0.592592,0.376599,0.592257,0.581406,0.174356,0.370833,0.529077,0.391794,0
3284,0.563522,0.223823,0.444049,0.636198,0.560053,0.54291,0.591146,0.493489,0.35382,1
3285,0.469371,0.785145,0.257054,0.78252,0.401201,0.412208,0.234303,0.553957,0.421416,0
3286,0.481957,0.74575,0.435528,0.48363,0.65913,0.306026,0.450876,0.543761,0.4114,0
3287,0.440835,0.632824,0.263666,0.142323,0.376921,0.506905,0.429652,0.495149,0.562567,1
3288,0.469142,0.783083,0.413943,0.520798,0.623266,0.548819,0.500622,0.379502,0.25792,0
3289,0.64746,0.347271,0.310624,0.671209,0.71688,0.506754,0.350353,0.462517,0.471695,0
3290,0.461913,0.63643,0.316334,0.370596,0.848251,0.353332,0.391539,0.607474,0.424774,0
3291,0.548422,0.600122,0.48453,0.508552,0.502208,0.46065,0.429816,0.652288,0.424392,1
3292,0.444201,0.623151,0.238769,0.591269,0.579284,0.295939,0.540691,0.577922,0.305911,0
3293,0.468165,0.667962,0.231129,0.449405,0.581699,0.326311,0.432362,0.339813,0.153295,0
3294,0.489552,0.672561,0.350582,0.591475,0.431969,0.434203,0.488246,0.593104,0.314445,0
3295,0.513464,0.423139,0.252853,0.573437,0.571441,0.448645,0.577502,0.676663,0.459389,0
3296,0.520171,0.448923,0.450275,0.588572,0.373309,0.515277,0.494633,0.502691,0.593124,1
3297,0.527669,0.471512,0.366669,0.526174,0.565275,0.429058,0.455422,0.472409,0.68693,1
3298,0.46783,0.548064,0.363742,0.674652,0.233835,0.59916,0.348144,0.457299,0.57407,1
3299,0.48569,0.473114,0.583551,0.368705,0.562858,0.493441,0.515107,0.729697,0.533118,1
3300,0.517327,0.398382,0.25968,0.56676,0.613151,0.782853,0.430433,0.3475,0.459381,0
3301,0.475762,0.801633,0.574183,0.794403,0.261828,0.339308,0.355797,0.504785,0.56468,1
3302,0.519864,0.553099,0.484561,0.421444,0.567537,0.348483,0.430011,0.359695,0.436788,1
3303,0.383284,0.797549,0.469433,0.570557,0.583348,0.328825,0.406246,0.52053,0.651811,1
3304,0.458379,0.264317,0.420295,0.466037,0.552788,0.393409,0.507208,0.464782,0.450878,1
3305,0.492319,0.68115,0.219753,0.544917,0.593357,0.646454,0.57683,0.583878,0.507162,0
3306,0.497042,0.422587,0.334064,0.564772,0.479756,0.510679,0.317471,0.651079,0.255926,0
3307,0.436703,0.503065,0.22391,0.734177,0.371894,0.372349,0.48485,0.598421,0.601672,0
3308,0.476654,0.503622,0.325252,0.543473,0.581699,0.362687,0.46294,0.616629,0.525099,0
3309,0.383152,0.699063,0.784982,0.596674,0.567233,0.672676,0.580694,0.587458,0.481243,1
3310,0.547377,0.498259,0.382782,0.689832,0.405288,0.279489,0.225655,0.37015,0.402755,0
3311,0.414257,0.711299,0.122056,0.515146,0.596613,0.50763,0.419141,0.40818,0.465084,0
3312,0.55058,0.607294,0.256709,0.581356,0.577343,0.294106,0.524875,0.617514,0.490863,0
3313,0.588704,0.377261,0.744274,0.350901,0.34956,0.401729,0.559817,0.314778,0.512079,1
3314,0.490184,0.580554,0.554767,0.692494,0.409216,0.44541,0.447157,0.524524,0.57394,1
3315,0.498519,0.476255,0.426752,0.634187,0.534074,0.540874,0.570222,0.576101,0.537397,1
3316,0.35096,0.557482,0.288672,0.516065,0.737205,0.732737,0.566296,0.424307,0.66344,0
3317,0.587423,0.63699,0.103327,0.513035,0.546742,0.553985,0.512864,0.642201,0.398777,0
3318,0.597499,0.439595,0.322912,0.579201,0.485477,0.532989,0.423416,0.584025,0.338173,0
3319,0.451082,0.652657,0.205995,0.385308,0.596009,0.364029,0.445836,0.643674,0.355853,0
3320,0.379602,0.582513,0.251916,0.539267,0.545545,0.410468,0.509491,0.610317,0.568765,0
3321,0.451692,0.693142,0.127113,0.65255,0.621586,0.364505,0.518136,0.388734,0.39225,0
3322,0.463041,0.484531,0.419205,0.352972,0.551144,0.474345,0.516839,0.556995,0.542377,1
3323,0.535246,0.589947,0.355746,0.44552,0.596033,0.462484,0.571715,0.654728,0.506469,0
3324,0.400604,0.492162,0.582993,0.418306,0.556743,0.490837,0.22926,0.590401,0.57166,1
3325,0.669462,0.556477,0.479174,0.615042,0.472353,0.261069,0.300544,0.61562,0.573484,1
3326,0.491951,0.638126,0.364602,0.529517,0.67171,0.237782,0.478063,0.5001,0.43689,0
3327,0.416483,0.328621,0.184693,0.541044,0.576388,0.363445,0.38232,0.626882,0.359154,0
3328,0.438735,0.582525,0.272723,0.620469,0.522021,0.643608,0.410268,0.456095,0.477411,0
3329,0.515568,0.454761,0.450906,0.593234,0.469883,0.439096,0.321293,0.508461,0.484221,1
3330,0.637567,0.383249,0.452785,0.693063,0.581699,0.370812,0.394314,0.579486,0.506957,1
3331,0.532088,0.582161,0.25142,0.487951,0.582735,0.545831,0.555488,0.595359,0.446739,0
3332,0.494934,0.542818,0.181081,0.344552,0.582885,0.375656,0.335945,0.475389,0.663228,0
3333,0.445367,0.574025,0.31034,0.499342,0.510566,0.357239,0.389167,0.533134,0.748652,0
3334,0.497595,0.515858,0.245657,0.56189,0.540208,0.440509,0.523376,0.492358,0.659121,0
3335,0.617651,0.246391,0.261744,0.59309,0.684097,0.677273,0.419284,0.523631,0.412083,0
3336,0.516425,0.663659,0.722524,0.535323,0.319056,0.507859,0.371471,0.494798,0.55352,1
3337,0.480916,0.674911,0.589861,0.371391,0.480689,0.299412,0.558049,0.685721,0.410628,1
3338,0.429939,0.585235,0.475313,0.495093,0.605142,0.319027,0.641982,0.579798,0.401875,1
3339,0.405396,0.536217,0.712961,0.31446,0.687243,0.346886,0.505958,0.486483,0.490891,1
3340,0.492499,0.527288,0.55307,0.706674,0.385984,0.481534,0.518203,0.640771,0.582561,1
3341,0.57108,0.57333,0.18466,0.719286,0.654036,0.539079,0.416455,0.391583,0.407976,0
3342,0.510697,0.463532,0.377826,0.681497,0.560108,0.227779,0.539099,0.580905,0.412648,0
3343,0.466775,0.129104,0.638669,0.487875,0.587527,0.309686,0.368183,0.468156,0.659527,1
3344,0.46966,0.756579,0.414805,0.517437,0.629638,0.541749,0.493307,0.539886,0.395187,1
3345,0.616305,0.351079,0.43165,0.577249,0.747509,0.452672,0.3784,0.43384,0.461452,1
3346,0.445543,0.353728,0.23325,0.545408,0.636067,0.211337,0.299803,0.561301,0.550621,0
3347,0.517834,0.776598,0.259303,0.576285,0.381772,0.39818,0.605979,0.63065,0.617694,0
3348,0.529607,0.433477,0.53202,0.499713,0.42851,0.573271,0.548453,0.523661,0.481375,1
3349,0.48517,0.630985,0.180025,0.544611,0.515254,0.319441,0.552935,0.500629,0.309834,0
3350,0.184118,0.460296,0.635181,0.82326,0.435865,0.394722,0.33153,0.510808,0.44088,1
3351,0.447861,0.421597,0.217761,0.425492,0.760545,0.435135,0.672819,0.548862,0.600017,0
3352,0.463663,0.742873,0.384821,0.63555,0.697901,0.411808,0.52019,0.449679,0.371375,0
3353,0.647751,0.462165,0.341988,0.680593,0.595272,0.231359,0.447521,0.423905,0.695568,0
3354,0.527584,0.603363,0.486253,0.562964,0.494946,0.362372,0.419424,0.565791,0.465646,1
3355,0.560854,0.402477,0.371084,0.647438,0.587669,0.45086,0.428214,0.625198,0.514888,0
3356,0.48248,0.651159,0.400004,0.57225,0.568976,0.299486,0.222719,0.298693,0.48885,0
3357,0.506031,0.420809,0.299327,0.549995,0.43782,0.451404,0.512198,0.673644,0.52074,0
3358,0.377447,0.501379,0.293015,0.375538,0.705638,0.621843,0.396162,0.644745,0.44055,0
3359,0.381743,0.708984,0.257266,0.531976,0.445274,0.400337,0.255243,0.642299,0.644054,0
3360,0.493206,0.533684,0.444038,0.501907,0.659597,0.644331,0.43194,0.612444,0.472331,1
3361,0.680012,0.399537,0.413537,0.524993,0.682857,0.378336,0.404933,0.546206,0.512868,1
3362,0.410767,0.741558,0.575776,0.558086,0.664447,0.290288,0.433175,0.374454,0.452403,1
3363,0.563811,0.613703,0.300421,0.547249,0.554333,0.227016,0.623947,0.745768,0.595113,0
3364,0.475641,0.739218,0.340909,0.57521,0.580561,0.540702,0.457258,0.493854,0.420612,0
3365,0.463372,0.516263,0.308779,0.653718,0.473226,0.425321,0.371265,0.59041,0.615306,0
3366,0.520708,0.62437,0.205502,0.40424,0.66544,0.478097,0.569487,0.575185,0.458321,0
3367,0.586546,0.45718,0.491833,0.622672,0.363394,0.520957,0.390413,0.569403,0.438189,1
3368,0.700924,0.819474,0.243487,0.524158,0.641513,0.746899,0.429263,0.679385,0.445293,0
3369,0.540459,0.412709,0.188328,0.569946,0.581699,0.529388,0.485593,0.38013,0.467404,0
3370,0.429893,0.675426,0.268209,0.402628,0.588779,0.369713,0.602497,0.639009,0.322211,0
3371,0.37008,0.431563,0.630936,0.449312,0.895922,0.527379,0.554327,0.412493,0.429603,1
3372,0.577511,0.674815,0.317531,0.436226,0.658811,0.329357,0.355597,0.555425,0.525989,0
3373,0.290264,0.999649,0.633989,0.633066,0.549049,0.567921,0.337686,0.514686,0.408472,1
3374,0.57526,0.437759,0.292773,0.638778,0.551354,0.588509,0.454059,0.502226,0.342264,0
3375,0.581594,0.458301,0.345518,0.472255,0.530089,0.487946,0.371887,0.382535,0.211508,0
3376,0.652775,0.473327,0.25371,0.588732,0.568714,0.389939,0.360198,0.491188,0.48321,0
3377,0.467222,0.410826,0.51996,0.802159,0.377238,0.52288,0.247609,0.595477,0.208644,1
3378,0.572251,0.535371,0.291691,0.752069,0.795554,0.285635,0.452724,0.466614,0.494155,0
3379,0.572777,0.393226,0.14269,0.577639,0.584182,0.373405,0.26076,0.485023,0.413135,0
3380,0.345635,0.845938,0.436966,0.505845,0.56259,0.498308,0.554918,0.498065,0.415103,1
3381,0.455484,0.510667,0.191751,0.608795,0.661918,0.409383,0.421375,0.52858,0.469788,0
3382,0.427207,0.62521,0.408765,0.523816,0.604883,0.580298,0.409355,0.851145,0.45049,1
3383,0.526778,0.601301,0.476136,0.737939,0.281447,0.399275,0.437868,0.606697,0.34584,1
3384,0.477283,0.648853,0.50111,0.475035,0.668967,0.232997,0.42672,0.559155,0.499982,1
3385,0.524441,0.62466,0.192926,0.445441,0.687383,0.402126,0.478975,0.541057,0.584752,0
3386,0.389191,0.544283,0.313017,0.31031,0.477416,0.292054,0.495936,0.560528,0.444038,0
3387,0.493847,0.399104,0.289803,0.523431,0.643525,0.284655,0.385308,0.311343,0.367405,0
3388,0.483678,0.519526,0.356275,0.601385,0.663936,0.316782,0.311007,0.522608,0.499903,0
3389,0.485538,0.714928,0.183802,0.322952,0.685677,0.684132,0.531792,0.413415,0.366033,0
3390,0.412273,0.501575,0.222917,0.524637,0.593656,0.439789,0.601531,0.508413,0.223135,0
3391,0.457527,0.593816,0.45744,0.739972,0.387384,0.457859,0.526288,0.396904,0.264855,1
3392,0.462821,0.767288,0.850399,0.416822,0.594531,0.375043,0.489095,0.563523,0.146912,1
3393,0.557983,0.612549,0.480109,0.549193,0.584722,0.170639,0.401611,0.694408,0.597516,1
3394,0.515762,0.4451,0.395473,0.411606,0.500299,0.407946,0.507629,0.725528,0.324439,1
3395,0.497519,0.353682,0.548995,0.486258,0.516482,0.536565,0.441304,0.350036,0.558911,1
3396,0.516878,0.619442,0.459789,0.614425,0.459393,0.321169,0.582235,0.26287,0.451656,1
3397,0.443562,0.534952,0.279896,0.358711,0.687239,0.365003,0.384443,0.43355,0.473976,0
3398,0.488094,0.668144,0.58656,0.725293,0.531227,0.22747,0.5815,0.750484,0.342489,1
3399,0.577566,0.283202,0.121783,0.585068,0.581699,0.539235,0.657496,0.506775,0.419281,0
3400,0.524155,0.64884,0.085095,0.731396,0.581699,0.306046,0.621494,0.369653,0.452544,0
3401,0.489589,0.61509,0.485248,0.428054,0.59222,0.383301,0.59628,0.334758,0.55345,1
3402,0.724725,0.53875,0.304275,0.485734,0.411422,0.410174,0.480035,0.626552,0.329075,0
3403,0.496167,0.418564,0.349858,0.532094,0.568793,0.368523,0.492735,0.473618,0.559967,0
3404,0.500358,0.649813,0.737665,0.331713,0.581405,0.274753,0.526574,0.585069,0.339329,1
3405,0.540126,0.42772,0.330225,0.57344,0.563705,0.454241,0.351933,0.507497,0.345371,0
3406,0.477725,0.625441,0.474303,0.493486,0.409697,0.299261,0.342075,0.655901,0.547971,1
3407,0.468286,0.463984,0.406742,0.489686,0.666919,0.201174,0.541101,0.593217,0.436952,0
3408,0.444983,0.708766,0.423673,0.638148,0.431528,0.488634,0.241633,0.559042,0.844107,1
3409,0.494769,0.615755,0.722659,0.458625,0.556977,0.322968,0.436077,0.534131,0.477503,1
3410,0.528511,0.517563,0.218791,0.583365,0.683419,0.372192,0.411283,0.589178,0.246869,0
3411,0.483937,0.546561,0.326554,0.54842,0.341608,0.598189,0.65435,0.412358,0.423568,1
3412,0.515949,0.500092,0.675546,0.638867,0.406769,0.346519,0.334856,0.547193,0.343488,1
3413,0.493635,0.47234,0.261004,0.52943,0.581699,0.570781,0.692289,0.573451,0.408944,0
3414,0.46025,0.69041,0.224114,0.574183,0.494779,0.512786,0.592226,0.642199,0.566016,0
3415,0.427765,0.596774,0.444091,0.492237,0.59554,0.481556,0.572376,0.532673,0.381216,1
3416,0.61168,0.48623,0.512002,0.555972,0.603718,0.359531,0.534135,0.545417,0.408339,1
3417,0.519265,0.580942,0.148752,0.615624,0.458931,0.5084,0.498357,0.491178,0.420779,0
3418,0.488606,0.654244,0.255528,0.401634,0.567825,0.291312,0.452912,0.489646,0.490456,0
3419,0.470264,0.632172,0.290088,0.671992,0.737168,0.302805,0.446558,0.428523,0.491842,0
3420,0.477572,0.428217,0.393027,0.584435,0.644929,0.268624,0.5247,0.637113,0.461964,0
3421,0.497195,0.543021,0.272187,0.505304,0.565506,0.575725,0.421674,0.510425,0.449606,0
3422,0.468558,0.332407,0.154222,0.764727,0.600074,0.382404,0.391699,0.501667,0.509628,0
3423,0.367309,0.673452,0.415748,0.586446,0.571056,0.593674,0.439761,0.315188,0.176752,0
3424,0.513319,0.83093,0.350891,0.432685,0.665459,0.294221,0.485214,0.669565,0.486453,0
3425,0.553034,0.52676,0.228702,0.400233,0.681167,0.41321,0.240752,0.613993,0.310046,0
3426,0.476497,0.474505,0.607099,0.602215,0.352693,0.351898,0.515895,0.535125,0.50815,1
3427,0.597684,0.516497,0.233456,0.553542,0.808711,0.198962,0.48169,0.511828,0.459529,0
3428,0.498974,0.794788,0.247437,0.525749,0.532366,0.411055,0.484282,0.447296,0.544642,0
3429,0.49171,0.441281,0.221716,0.566696,0.57694,0.312711,0.425958,0.525776,0.551328,0
3430,0.53065,0.405729,0.317287,0.551898,0.518002,0.386669,0.693113,0.401898,0.302024,0
3431,0.508323,0.62956,0.766109,0.6064,0.413104,0.669407,0.478756,0.584282,0.48969,1
3432,0.424369,0.635233,0.337103,0.5573,0.601927,0.395194,0.579026,0.605668,0.363289,0
3433,0.566182,0.544305,0.163213,0.490716,0.605737,0.409941,0.419508,0.54417,0.333071,0
3434,0.4691,0.508309,0.4167,0.248623,0.821702,0.328145,0.470263,0.491602,0.540297,1
3435,0.503695,0.461969,0.469064,0.309741,0.612176,0.713712,0.678913,0.465555,0.38922,1
3436,0.498884,0.588398,0.392854,0.54634,0.585478,0.299378,0.592124,0.549734,0.423261,0
3437,0.463264,0.603498,0.187173,0.552179,0.511067,0.457385,0.476596,0.502589,0.582253,0
3438,0.485857,0.631911,0.206237,0.570397,0.554091,0.370748,0.440236,0.598256,0.414659,0
3439,0.527489,0.532388,0.142964,0.66998,0.58477,0.345802,0.249425,0.641761,0.437691,0
3440,0.50838,0.656902,0.30669,0.467959,0.605016,0.32721,0.552054,0.600352,0.378446,0
3441,0.551232,0.613965,0.106,0.614342,0.581699,0.484033,0.50754,0.490394,0.42885,0
3442,0.488455,0.709848,0.853308,0.49236,0.663512,0.308901,0.51522,0.598164,0.240314,1
3443,0.470939,0.560003,0.379947,0.441553,0.493689,0.441367,0.484806,0.475793,0.375203,1
3444,0.570316,0.512094,0.200388,0.721019,0.731089,0.506634,0.246011,0.531484,0.28561,0
3445,0.534729,0.510781,0.478071,0.602388,0.636985,0.735787,0.63469,0.600216,0.479658,1
3446,0.373414,0.639717,0.371677,0.664023,0.481461,0.509129,0.399796,0.507813,0.610616,1
3447,0.428876,0.403898,0.233867,0.664994,0.581699,0.237266,0.381714,0.509421,0.380581,0
3448,0.542738,0.669215,0.249196,0.588429,0.636378,0.338157,0.501725,0.473369,0.521038,0
3449,0.567794,0.556676,0.272543,0.465717,0.589874,0.602769,0.563706,0.531126,0.484061,0
3450,0.482396,0.519155,0.505216,0.552914,0.694938,0.579364,0.426039,0.600722,0.425048,1
3451,0.532702,0.565955,0.326768,0.558815,0.601388,0.568879,0.59078,0.575189,0.515573,0
3452,0.415664,0.631879,0.283802,0.519797,0.422196,0.545718,0.451032,0.533171,0.459356,0
3453,0.588317,0.511667,0.400407,0.37173,0.592129,0.501406,0.482498,0.368218,0.123192,0
3454,0.454231,0.432088,0.386315,0.640908,0.581699,0.624257,0.468347,0.520759,0.275824,0
3455,0.557632,0.598209,0.344825,0.46101,0.541425,0.558531,0.381996,0.683806,0.679302,1
3456,0.476783,0.541118,0.154725,0.583581,0.527016,0.388645,0.399632,0.524622,0.656051,0
3457,0.317128,0.764047,0.433646,0.541299,0.689489,0.343637,0.580543,0.784756,0.482019,1
3458,0.578854,0.443735,0.346556,0.458861,0.607748,0.484484,0.445066,0.506803,0.269501,0
3459,0.336895,0.61581,0.223568,0.508734,0.673223,0.641263,0.433486,0.589054,0.415623,0
3460,0.505771,0.633897,0.205839,0.410243,0.584328,0.37339,0.444282,0.623326,0.377958,0
3461,0.342657,0.449916,0.300756,0.529614,0.554126,0.597587,0.471471,0.505838,0.436608,0
3462,0.507616,0.578604,0.547744,0.419948,0.578159,0.395859,0.467756,0.549476,0.595148,1
3463,0.452358,0.41075,0.342808,0.685518,0.550422,0.225024,0.454014,0.507432,0.615469,0
3464,0.627032,0.61344,0.266613,0.570895,0.547745,0.597112,0.267745,0.550446,0.446967,0
3465,0.582668,0.620492,0.125248,0.55908,0.420518,0.336332,0.552604,0.599791,0.567774,0
3466,0.543973,0.582965,0.277914,0.574602,0.44896,0.247126,0.45226,0.398684,0.349881,0
3467,0.551597,0.591943,0.523178,0.538377,0.545656,0.525866,0.514488,0.647484,0.557089,1
3468,0.315627,0.43716,0.674622,0.565075,0.665646,0.395901,0.360094,0.532709,0.339481,1
3469,0.499972,0.605152,0.331038,0.42532,0.557048,0.262133,0.511821,0.532141,0.577433,0
3470,0.475062,0.518108,0.519801,0.434301,0.551842,0.257788,0.457728,0.527718,0.561363,1
3471,0.425327,0.538223,0.546919,0.420088,0.579155,0.51832,0.633426,0.58046,0.577531,1
3472,0.657589,0.552012,0.407136,0.459614,0.561279,0.534678,0.507481,0.450806,0.460348,1
3473,0.505771,0.519123,0.324721,0.643075,0.582391,0.271946,0.377944,0.621414,0.4865,0
3474,0.464441,0.499021,0.427821,0.471636,0.704799,0.567942,0.668258,0.433198,0.544212,1
3475,0.509911,0.442085,0.605617,0.320993,0.521217,0.460928,0.568368,0.508441,0.510098,1
3476,0.542319,0.636009,0.230068,0.539712,0.605252,0.417961,0.569189,0.528024,0.55202,0
3477,0.544527,0.587927,0.243656,0.551056,0.732448,0.431476,0.419318,0.579138,0.399539,0
3478,0.511257,0.556164,0.31553,0.563598,0.485589,0.353786,0.415786,0.60224,0.394113,0
3479,0.507899,0.70733,0.257958,0.735369,0.279329,0.39213,0.269468,0.627004,0.63445,0
3480,0.483102,0.57742,0.322364,0.629238,0.465473,0.287968,0.581176,0.658121,0.406919,0
3481,0.334296,0.48593,0.557275,0.451965,0.515085,0.451422,0.34397,0.532673,0.437585,1
3482,0.412462,0.722124,0.456524,0.434026,0.64474,0.597768,0.548996,0.540955,0.35216,1
3483,0.567822,0.597107,0.143422,0.662516,0.513113,0.276144,0.324228,0.61803,0.483322,0
3484,0.42393,0.525587,0.506017,0.453752,0.584661,0.368876,0.441792,0.750587,0.471247,1
3485,0.530574,0.633534,0.28542,0.407318,0.491624,0.582156,0.367694,0.572563,0.444642,0
3486,0.406809,0.446081,0.564309,0.240236,0.70433,0.36338,0.481454,0.52905,0.467115,1
3487,0.567837,0.565133,0.479418,0.775418,0.480993,0.298126,0.432173,0.576127,0.430716,1
3488,0.261541,0.356654,0.433613,0.366307,0.69151,0.470989,0.486759,0.658974,0.478019,1
3489,0.402457,0.441536,0.235096,0.574159,0.581699,0.481636,0.529597,0.505441,0.464446,0
3490,0.571066,0.466688,0.223694,0.787154,0.453568,0.437259,0.575901,0.492735,0.651754,0
3491,0.395575,0.534476,0.232077,0.433899,0.52539,0.500927,0.440281,0.75249,0.676668,0
3492,0.391912,0.478667,0.41942,0.523254,0.583363,0.412709,0.494001,0.529298,0.613103,1
3493,0.705935,0.640882,0.190675,0.638395,0.590516,0.297853,0.482364,0.520102,0.473676,0
3494,0.556699,0.547624,0.394694,0.348233,0.427822,0.398673,0.567289,0.534845,0.393404,1
3495,0.470613,0.471483,0.616206,0.619113,0.609517,0.37519,0.447417,0.229919,0.629201,1
3496,0.373794,0.522471,0.352627,0.430166,0.597619,0.301255,0.460023,0.346535,0.62535,0
3497,0.26638,0.544084,0.462654,0.429419,0.528816,0.557855,0.356295,0.600489,0.462598,1
3498,0.624014,0.547947,0.391488,0.459848,0.537055,0.54136,0.365954,0.609527,0.619844,1
3499,0.54497,0.636631,0.24241,0.57045,0.567842,0.627943,0.49055,0.638767,0.481118,0
3500,0.566353,0.562089,0.260629,0.57811,0.719294,0.286137,0.613831,0.61744,0.573367,0
3501,0.567474,0.59029,0.220237,0.605499,0.613644,0.275017,0.532118,0.617721,0.697103,0
3502,0.24805,0.483701,0.635626,0.679018,0.280511,0.359169,0.367504,0.524123,0.41436,1
3503,0.457015,0.63743,0.243278,0.542328,0.559401,0.438734,0.393117,0.429089,0.514946,0
3504,0.49103,0.542609,0.405848,0.461994,0.511235,0.56586,0.514892,0.671433,0.663727,1
3505,0.483274,0.510286,0.239039,0.536517,0.640746,0.446267,0.589887,0.600328,0.427768,0
3506,0.570002,0.549594,0.371724,0.557265,0.517228,0.312425,0.43049,0.570546,0.49961,0
3507,0.61567,0.603735,0.292599,0.389987,0.508991,0.290237,0.629858,0.633659,0.34014,0
3508,0.479665,0.544548,0.184389,0.636008,0.652861,0.550167,0.264355,0.637079,0.376589,0
3509,0.629908,0.622202,0.236976,0.522678,0.647519,0.564824,0.404422,0.52721,0.458618,0
3510,0.483406,0.57308,0.325034,0.578093,0.250385,0.719796,0.421797,0.422499,0.438187,1
3511,0.48452,0.506664,0.298441,0.455666,0.540495,0.327549,0.497657,0.52881,0.437521,0
3512,0.529269,0.45783,0.406252,0.637063,0.668204,0.225453,0.51298,0.594746,0.557679,0
3513,0.437359,0.416935,0.177313,0.520849,0.584274,0.461514,0.457698,0.521073,0.634906,0
3514,0.504077,0.56573,0.196058,0.785383,0.563759,0.307146,0.49715,0.641747,0.459598,0
3515,0.670603,0.595832,0.221119,0.604607,0.582652,0.284838,0.525711,0.569289,0.511121,0
3516,0.483788,0.284013,0.180251,0.536891,0.523978,0.275575,0.483342,0.590171,0.565029,0
3517,0.542075,0.574995,0.557154,0.520361,0.492178,0.336148,0.434719,0.636244,0.560046,1
3518,0.547222,0.525156,0.117906,0.579467,0.623359,0.223269,0.341415,0.584441,0.45112,0
3519,0.588271,0.448057,0.547631,0.399922,0.581699,0.504528,0.412866,0.548035,0.431925,1
3520,0.496672,0.529728,0.221027,0.579005,0.684861,0.254004,0.385482,0.532186,0.474297,0
3521,0.485759,0.542827,0.461227,0.380252,0.6601,0.39405,0.368354,0.648023,0.306737,1
3522,0.514493,0.342226,0.453526,0.705957,0.581699,0.442733,0.428158,0.518313,0.511887,1
3523,0.57652,0.441476,0.292066,0.662246,0.598185,0.677381,0.413677,0.688513,0.542474,0
3524,0.493871,0.584356,0.382748,0.481995,0.473612,0.466376,0.158739,0.286202,0.296239,0
3525,0.444333,0.624852,0.363297,0.58811,0.676366,0.305128,0.53679,0.612193,0.589703,0
3526,0.637692,0.487551,0.37722,0.533419,0.605521,0.361466,0.364182,0.553891,0.47114,0
3527,0.425165,0.653554,0.184879,0.465286,0.581699,0.397953,0.363697,0.65755,0.435216,0
3528,0.456274,0.487899,0.519998,0.547659,0.550663,0.535175,0.256049,0.353887,0.392765,1
3529,0.533092,0.47241,0.366845,0.561678,0.533417,0.338599,0.480433,0.506699,0.786761,1
3530,0.452492,0.526069,0.332776,0.255182,0.604264,0.42631,0.315596,0.537057,0.307263,0
3531,0.614482,0.606791,0.321143,0.575061,0.562327,0.485441,0.451392,0.458551,0.390981,0
3532,0.300114,0.458566,0.352399,0.373948,0.61242,0.380833,0.47423,0.397218,0.71627,1
3533,0.594394,0.665321,0.242179,0.572774,0.581699,0.463383,0.485535,0.610709,0.493576,0
3534,0.553089,0.650136,0.212145,0.752839,0.539409,0.30201,0.300278,0.512263,0.612075,0
3535,0.548167,0.577588,0.438645,0.298359,0.477435,0.566081,0.405081,0.379379,0.499923,1
3536,0.545281,0.637282,0.350729,0.466119,0.730462,0.379715,0.516539,0.562589,0.549041,0
3537,0.5498,0.579037,0.573837,0.608674,0.541031,0.490853,0.377253,0.428957,0.581689,1
3538,0.44811,0.490331,0.262071,0.565595,0.545609,0.349611,0.438417,0.718009,0.400202,0
3539,0.401646,0.661752,0.212785,0.742141,0.545983,0.295047,0.438229,0.725992,0.556636,0
3540,0.504012,0.507574,0.425207,0.33859,0.58336,0.330331,0.676934,0.441197,0.466174,1
3541,0.521032,0.536271,0.31698,0.599163,0.522839,0.342706,0.649112,0.432457,0.312941,0
3542,0.629916,0.50987,0.451897,0.619381,0.49816,0.297685,0.459765,0.586023,0.468829,1
3543,0.504278,0.584949,0.268897,0.588048,0.450648,0.474731,0.612461,0.649567,0.366899,0
3544,0.548848,0.534982,0.222852,0.599253,0.784977,0.279204,0.50409,0.593813,0.491363,0
3545,0.469528,0.474775,0.56245,0.430606,0.686896,0.196706,0.458229,0.60847,0.397328,1
3546,0.494272,0.475644,0.618238,0.367368,0.596501,0.568593,0.534554,0.514425,0.558425,1
3547,0.467452,0.551099,0.634681,0.439561,0.760694,0.515717,0.515211,0.493303,0.352389,1
3548,0.482595,0.476517,0.562878,0.412081,0.671871,0.372817,0.541777,0.520973,0.428349,1
3549,0.555951,0.416946,0.256168,0.668874,0.563045,0.42652,0.410013,0.529201,0.443218,0
3550,0.502821,0.650642,0.205904,0.515538,0.585031,0.356494,0.489031,0.560708,0.387516,0
3551,0.551261,0.41987,0.438448,0.38552,0.510191,0.417728,0.283847,0.491853,0.392057,1
3552,0.576582,0.425288,0.458162,0.591493,0.704133,0.458849,0.582178,0.623292,0.658005,1
3553,0.573873,0.646506,0.11183,0.644916,0.547219,0.184447,0.307253,0.44968,0.492076,0
3554,0.593494,0.48999,0.594387,0.443771,0.518746,0.458607,0.466205,0.497199,0.44372,1
3555,0.542884,0.547886,0.411794,0.469489,0.493342,0.428686,0.464018,0.547528,0.582483,1
3556,0.601102,0.545879,0.390519,0.487182,0.516327,0.544696,0.365342,0.456618,0.650695,1
3557,0.45513,0.409586,0.451565,0.418055,0.60128,0.448297,0.494135,0.605003,0.584727,1
3558,0.46967,0.541507,0.152821,0.764469,0.323593,0.385239,0.36192,0.328574,0.397761,0
3559,0.588882,0.524791,0.130499,0.589596,0.612604,0.493664,0.436487,0.63195,0.345815,0
3560,0.511225,0.497591,0.292611,0.626545,0.756721,0.623718,0.566688,0.466053,0.225971,0
3561,0.49464,0.441574,0.34577,0.387705,0.475006,0.368158,0.126331,0.63898,0.219201,0
3562,0.505771,0.65734,0.155231,0.480922,0.338369,0.266978,0.413353,0.258847,0.521113,0
3563,0.504106,0.629443,0.165065,0.727066,0.581699,0.360082,0.349762,0.574029,0.423781,0
3564,0.63807,0.486676,0.492018,0.696956,0.800442,0.564745,0.368695,0.502881,0.468196,1
3565,0.461831,0.451238,0.400448,0.494476,0.662613,0.594729,0.507097,0.339301,0.461651,1
3566,0.474495,0.496419,0.219591,0.57225,0.569029,0.432172,0.521118,0.673116,0.666683,0
3567,0.490205,0.479708,0.537847,0.533967,0.617312,0.419428,0.284113,0.543525,0.407636,1
3568,0.292001,0.517034,0.420586,0.490705,0.629867,0.524919,0.603076,0.547301,0.39895,1
3569,0.394778,0.592824,0.4748,0.345704,0.588539,0.321798,0.534869,0.323242,0.500167,1
3570,0.523384,0.665881,0.10586,0.65055,0.572691,0.490754,0.462011,0.631523,0.394833,0
3571,0.690734,0.634274,0.235334,0.479392,0.50639,0.294038,0.517286,0.442959,0.554418,0
3572,0.575262,0.665834,0.109969,0.657182,0.741791,0.373289,0.389686,0.5724,0.437377,0
3573,0.524713,0.490921,0.298066,0.606327,0.425565,0.462527,0.340063,0.759149,0.653325,0
3574,0.513201,0.588073,0.381564,0.457918,0.650434,0.419141,0.382163,0.610571,0.283957,0
3575,0.644417,0.583503,0.332814,0.415506,0.620643,0.385594,0.323748,0.527939,0.555955,0
3576,0.512634,0.627117,0.364635,0.697185,0.668333,0.236233,0.318044,0.642677,0.520688,0
3577,0.608076,0.644324,0.152242,0.688096,0.348748,0.310115,0.550324,0.485113,0.321434,0
3578,0.551625,0.632168,0.297716,0.445858,0.372732,0.328959,0.481419,0.741769,0.551163,0
3579,0.550953,0.647637,0.228031,0.459282,0.572225,0.500021,0.383245,0.581601,0.194665,0
3580,0.404883,0.498222,0.580932,0.477895,0.514505,0.474318,0.245908,0.535642,0.444569,1
3581,0.608525,0.82751,0.259088,0.577686,0.611822,0.589753,0.601073,0.523966,0.431949,0
3582,0.410036,0.302326,0.44081,0.271972,0.592357,0.357691,0.45647,0.518749,0.341629,1
3583,0.65962,0.584546,0.480119,0.559907,0.432711,0.27919,0.427202,0.570916,0.608384,1
3584,0.483038,0.498984,0.316133,0.636682,0.799216,0.405778,0.350244,0.630617,0.540039,0
3585,0.38807,0.446602,0.419374,0.439669,0.574098,0.328757,0.43742,0.389891,0.435747,1
3586,0.525354,0.518482,0.272294,0.636115,0.768694,0.244047,0.391743,0.384885,0.374512,0
3587,0.505771,0.646012,0.167418,0.514863,0.581699,0.29234,0.354276,0.609465,0.306533,0
3588,0.633135,0.63762,0.247798,0.634065,0.530513,0.427901,0.5128,0.514424,0.389896,0
3589,0.508181,0.612634,0.149309,0.54792,0.531483,0.560356,0.348508,0.446822,0.584198,0
3590,0.482248,0.553161,0.109954,0.825372,0.573417,0.359609,0.505625,0.581981,0.443472,0
3591,0.530631,0.517467,0.386467,0.599234,0.541692,0.405748,0.471786,0.481145,0.684183,1
3592,0.441298,0.257794,0.232056,0.487146,0.461792,0.549333,0.467529,0.755446,0.546894,0
3593,0.344413,0.575563,0.353473,0.55172,0.581426,0.444809,0.462849,0.610847,0.739665,1
3594,0.419098,0.508265,0.510289,0.361124,0.606447,0.568921,0.527444,0.495809,0.31125,1
3595,0.467692,0.460696,0.196103,0.748737,0.64121,0.305375,0.644525,0.696485,0.363239,0
3596,0.505907,0.572768,0.35224,0.438219,0.57798,0.371434,0.614412,0.406859,0.480836,0
3597,0.511427,0.456005,0.361138,0.552715,0.712491,0.242324,0.404166,0.549698,0.445524,0
3598,0.50891,0.453489,0.468741,0.310935,0.452177,0.613071,0.562587,0.435424,0.174092,1
3599,0.508478,0.438946,0.369813,0.464447,0.466345,0.525621,0.506796,0.285075,0.898073,1
3600,0.396025,0.699197,0.098958,0.533948,0.757222,0.32651,0.405008,0.66326,0.443641,0
3601,0.461871,0.361646,0.154335,0.694413,0.759007,0.270436,0.354663,0.334913,0.472966,0
3602,0.586825,0.443318,0.342179,0.551604,0.450092,0.268594,0.46196,0.527776,0.647539,0
3603,0.543273,0.425366,0.779377,0.530533,0.455723,0.43206,0.403699,0.52054,0.31051,1
3604,0.316474,0.54856,0.300761,0.499338,0.576704,0.502164,0.456535,0.650744,0.360358,0
3605,0.49854,0.497931,0.326477,0.423183,0.691198,0.61436,0.390889,0.538726,0.650697,1
3606,0.476079,0.575993,0.183826,0.744716,0.595665,0.260587,0.372931,0.477719,0.370649,0
3607,0.652073,0.444259,0.377915,0.571551,0.606369,0.307807,0.369954,0.642343,0.422952,0
3608,0.364011,0.633001,0.240072,0.694944,0.792369,0.483696,0.315965,0.439814,0.587968,0
3609,0.498269,0.413096,0.442965,0.540991,0.562269,0.258115,0.374406,0.313619,0.306204,0
3610,0.542869,0.471936,0.344867,0.456251,0.581699,0.418019,0.379999,0.529573,0.462275,0
3611,0.507381,0.473257,0.374331,0.332951,0.474894,0.437017,0.349305,0.624597,0.281741,1
3612,0.493667,0.645167,0.220897,0.634762,0.604444,0.591785,0.471694,0.657385,0.441518,0
3613,0.509213,0.564464,0.438505,0.491221,0.641529,0.449384,0.392349,0.435002,0.408658,1
3614,0.407938,0.570966,0.127118,0.607376,0.574755,0.468245,0.433969,0.671919,0.470454,0
3615,0.473198,0.53781,0.281272,0.496263,0.600117,0.446824,0.454108,0.575079,0.583464,0
3616,0.489329,0.631323,0.224239,0.672379,0.708679,0.559525,0.574754,0.594133,0.459964,0
3617,0.505771,0.663999,0.322741,0.356845,0.692646,0.250647,0.436819,0.26382,0.43477,0
3618,0.505771,0.536506,0.282683,0.601048,0.691608,0.235813,0.394769,0.56993,0.313358,0
3619,0.522793,0.514018,0.344679,0.484884,0.581699,0.418526,0.393764,0.494742,0.770971,1
3620,0.517962,0.494641,0.369301,0.61764,0.583305,0.596554,0.50881,0.651464,0.308149,0
3621,0.30131,0.568615,0.352393,0.458313,0.648548,0.257861,0.349,0.321882,0.594176,0
3622,0.505771,0.34795,0.73751,0.382227,0.317812,0.372126,0.603282,0.485572,0.591162,1
3623,0.491668,0.514904,0.274681,0.529338,0.642216,0.652387,0.321381,0.599135,0.496061,0
3624,0.569411,0.585512,0.604013,0.56894,0.350331,0.601896,0.426177,0.596855,0.364315,1
3625,0.518564,0.389222,0.506176,0.342904,0.361974,0.4797,0.55051,0.566468,0.388563,1
3626,0.657531,0.615571,0.191073,0.695226,0.614021,0.327602,0.46009,0.494607,0.407524,0
3627,0.677007,0.423758,0.64898,0.55254,0.534977,0.415745,0.511472,0.762361,0.572949,1
3628,0.536642,0.578166,0.236688,0.500701,0.647452,0.524917,0.258978,0.528651,0.546151,0
3629,0.509614,0.60976,0.27495,0.667064,0.60689,0.563133,0.445039,0.543379,0.503706,0
3630,0.515411,0.561111,0.351934,0.604938,0.647287,0.435056,0.708565,0.349995,0.493657,0
3631,0.570849,0.513147,0.356163,0.575102,0.524709,0.313126,0.617694,0.471887,0.61179,0
3632,0.45677,0.67718,0.72458,0.304945,0.271248,0.532833,0.515994,0.536365,0.744228,1
3633,0.475599,0.681618,0.127461,0.724952,0.813914,0.412005,0.360088,0.3891,0.45783,0
3634,0.592827,0.381588,0.590765,0.378123,0.538895,0.740592,0.654079,0.481751,0.370985,1
3635,0.511184,0.55787,0.3194,0.540262,0.568756,0.350447,0.633895,0.553176,0.531011,0
3636,0.32796,0.562985,0.465881,0.383476,0.514762,0.56604,0.309715,0.562115,0.55007,1
3637,0.452384,0.589174,0.190527,0.607323,0.581699,0.316933,0.355664,0.55884,0.558158,0
3638,0.462179,0.487066,0.362234,0.542794,0.704472,0.363268,0.222232,0.690079,0.424611,0
3639,0.575177,0.400349,0.358646,0.619321,0.541427,0.43903,0.495991,0.666269,0.530635,0
3640,0.542409,0.481983,0.664088,0.340066,0.436887,0.23977,0.456091,0.55882,0.464703,1
3641,0.59669,0.502372,0.505246,0.591248,0.480663,0.411246,0.529082,0.570284,0.516794,1
3642,0.53866,0.599922,0.350677,0.573717,0.59129,0.406932,0.425247,0.413266,0.345464,0
3643,0.520956,0.474191,0.560102,0.555295,0.503317,0.604609,0.485219,0.552432,0.454349,1
3644,0.516551,0.459974,0.275581,0.5015,0.538693,0.430561,0.427061,0.413593,0.641303,0
3645,0.358159,0.399607,0.291235,0.323729,0.479843,0.622072,0.495747,0.721431,0.571649,1
3646,0.528486,0.482836,0.412398,0.557364,0.785923,0.364937,0.382124,0.597556,0.238945,0
3647,0.674374,0.323415,0.33037,0.534853,0.45661,0.506139,0.44787,0.456198,0.504233,0
3648,0.456917,0.528453,0.215096,0.580176,0.701257,0.425239,0.467825,0.516224,0.337438,0
3649,0.4158,0.556162,0.313674,0.494478,0.523321,0.336545,0.586899,0.156839,0.297629,0
3650,0.565901,0.396781,0.548478,0.401679,0.592182,0.28189,0.462997,0.475523,0.419697,1
3651,0.642085,0.400374,0.569739,0.44616,0.581699,0.561774,0.245487,0.231469,0.408769,1
3652,0.487145,0.492043,0.299185,0.495726,0.465766,0.368012,0.408826,0.687516,0.29078,0
3653,0.551258,0.496063,0.377888,0.619567,0.581699,0.302742,0.345219,0.569761,0.429305,0
3654,0.439885,0.645336,0.28699,0.56004,0.581699,0.570439,0.453579,0.433362,0.304018,0
3655,0.499458,0.597795,0.272695,0.494303,0.563292,0.23886,0.609844,0.594825,0.418611,0
3656,0.554503,0.549374,0.413444,0.607372,0.683899,0.389661,0.467888,0.549554,0.337986,0
3657,0.511136,0.671261,0.020071,0.789846,0.834215,0.310459,0.518725,0.503417,0.456642,0
3658,0.593996,0.507688,0.429147,0.705431,0.770098,0.481473,0.531813,0.34464,0.411506,0
3659,0.576632,0.435323,0.522413,0.668316,0.393197,0.283458,0.397344,0.481712,0.400743,1
3660,0.53899,0.636903,0.237004,0.497685,0.686994,0.558953,0.3096,0.484242,0.52917,0
3661,0.359357,0.580469,0.189206,0.538461,0.65862,0.414684,0.328175,0.44884,0.552433,0
3662,0.510958,0.416069,0.4498,0.645515,0.374183,0.466813,0.473928,0.526082,0.63052,1
3663,0.601765,0.430019,0.458962,0.259461,0.353526,0.467007,0.401553,0.633697,0.513247,1
3664,0.595164,0.460115,0.547873,0.371181,0.64911,0.294052,0.467873,0.657482,0.408501,1
3665,0.453501,0.524211,0.299474,0.584535,0.697685,0.523382,0.445653,0.726294,0.563918,0
3666,0.55771,0.509466,0.460112,0.502092,0.538558,0.551175,0.504078,0.699923,0.445523,1
3667,0.598544,0.421266,0.64437,0.50779,0.513405,0.453177,0.432084,0.531658,0.579958,1
3668,0.57193,0.585821,0.256425,0.43341,0.537442,0.381228,0.313772,0.481628,0.558068,0
3669,0.440121,0.465789,0.569188,0.42177,0.479072,0.615906,0.389388,0.259522,0.455862,1
3670,0.508375,0.557691,0.314402,0.503467,0.576634,0.271818,0.517689,0.629111,0.390023,0
3671,0.496826,0.620268,0.275077,0.689243,0.622803,0.571705,0.425689,0.491527,0.485543,0
3672,0.522077,0.450902,0.588132,0.43916,0.491224,0.387689,0.456157,0.70534,0.579863,1
3673,0.596987,0.550804,0.5625,0.409208,0.488619,0.277515,0.463839,0.565021,0.426476,1
3674,0.529655,0.624906,0.212646,0.473299,0.581699,0.61318,0.551897,0.534629,0.579573,0
3675,0.500336,0.603897,0.402502,0.425678,0.534698,0.35715,0.353582,0.42752,0.633343,1
3676,0.460101,0.606157,0.212897,0.627546,0.593749,0.324848,0.344255,0.774373,0.519891,0
3677,0.440769,0.651012,0.115115,0.540845,0.56203,0.399057,0.344154,0.560254,0.331319,0
3678,0.5162,0.508027,0.355701,0.503145,0.643294,0.556233,0.511783,0.683992,0.464999,0
3679,0.45307,0.5115,0.541928,0.49067,0.584909,0.559528,0.574902,0.525515,0.455922,1
3680,0.587569,0.570791,0.381548,0.406692,0.532536,0.500041,0.428203,0.376455,0.458172,1
3681,0.592195,0.45063,0.618741,0.704853,0.612403,0.500621,0.441506,0.526009,0.438393,1
3682,0.373621,0.550688,0.474811,0.361538,0.602741,0.31496,0.505385,0.520205,0.408733,1
3683,0.502147,0.726634,0.397842,0.402299,0.63984,0.392699,0.468644,0.643601,0.413434,0
3684,0.564231,0.47807,0.561828,0.4657,0.64082,0.468218,0.568768,0.360645,0.456265,1
3685,0.541833,0.520568,0.477193,0.426861,0.614426,0.615245,0.644924,0.68157,0.415955,1
3686,0.575123,0.565167,0.251908,0.533862,0.58314,0.601416,0.442199,0.612478,0.222703,0
3687,0.560462,0.533109,0.534461,0.323537,0.40225,0.214887,0.579502,0.53774,0.435173,1
3688,0.548589,0.515102,0.71315,0.391854,0.527894,0.250571,0.510275,0.530755,0.397748,1
3689,0.581254,0.637769,0.205764,0.424062,0.542765,0.449146,0.479884,0.558058,0.489319,0
3690,0.481501,0.539237,0.42891,0.72099,0.778204,0.466696,0.51697,0.38216,0.388669,0
3691,0.504083,0.602717,0.272438,0.458287,0.588414,0.289599,0.565434,0.491421,0.3603,0
3692,0.429838,0.524651,0.312886,0.458497,0.523936,0.585745,0.567019,0.513248,0.427476,0
3693,0.50169,0.55681,0.494952,0.465431,0.614131,0.527091,0.620823,0.48787,0.481407,1
3694,0.535445,0.458652,0.234599,0.526192,0.581699,0.499808,0.321947,0.333096,0.658064,0
3695,0.639011,0.45936,0.617689,0.301445,0.594731,0.602677,0.567621,0.52841,0.393968,1
3696,0.53992,0.438565,0.43705,0.356681,0.454425,0.510247,0.248287,0.484791,0.498,1
3697,0.439733,0.602496,0.402978,0.323277,0.488027,0.3773,0.405184,0.540658,0.642006,1
3698,0.503909,0.587442,0.381773,0.535943,0.476901,0.467204,0.183671,0.256464,0.255601,0
3699,0.45113,0.624498,0.18562,0.498098,0.528212,0.382077,0.363226,0.6076,0.539523,0
3700,0.4831,0.450357,0.291936,0.486962,0.521385,0.616495,0.342147,0.486831,0.492377,0
3701,0.517599,0.415422,0.662749,0.350286,0.499322,0.534364,0.628505,0.521056,0.442009,1
3702,0.496714,0.651819,0.184417,0.548102,0.58234,0.472434,0.460001,0.665408,0.486838,0
3703,0.395059,0.553102,0.313419,0.465201,0.537937,0.302646,0.628003,0.461324,0.386757,0
3704,0.523629,0.473692,0.56191,0.540896,0.472271,0.483606,0.612243,0.573288,0.362214,1
3705,0.391512,0.405058,0.295622,0.504642,0.665561,0.211734,0.397458,0.419844,0.589645,0
3706,0.456541,0.356901,0.280139,0.535559,0.577695,0.366938,0.424834,0.587877,0.41233,0
3707,0.560231,0.323109,0.491049,0.347851,0.315463,0.368076,0.396972,0.599723,0.433011,1
3708,0.282861,0.727344,0.161006,0.585724,0.499566,0.633933,0.442708,0.408636,0.397884,0
3709,0.55144,0.518846,0.332348,0.597221,0.587646,0.825687,0.641283,0.647232,0.566139,1
3710,0.405045,0.49205,0.391236,0.507051,0.678696,0.225203,0.429798,0.597719,0.650274,0
3711,0.684346,0.643955,0.210006,0.684117,0.530324,0.209992,0.38609,0.495822,0.716955,0
3712,0.410742,0.668532,0.8946,0.523746,0.442439,0.420474,0.445552,0.57126,0.320502,1
3713,0.59665,0.428744,0.315582,0.469585,0.634939,0.534664,0.607191,0.367104,0.480493,0
3714,0.548388,0.647501,0.30147,0.698134,0.578039,0.267165,0.25626,0.666731,0.268299,0
3715,0.477543,0.514192,0.446908,0.432306,0.338408,0.219224,0.400976,0.595209,0.549773,1
3716,0.416567,0.588558,0.313744,0.516951,0.581699,0.365642,0.571083,0.513947,0.363367,0
3717,0.552495,0.820152,0.66157,0.439682,0.35585,0.446468,0.318406,0.579945,0.420436,1
3718,0.480767,0.7137,0.089428,0.749738,0.581699,0.277731,0.527698,0.709727,0.499639,0
3719,0.532788,0.469458,0.374219,0.616304,0.476904,0.381944,0.336924,0.60838,0.151183,0
3720,0.490356,0.529243,0.234207,0.527482,0.539901,0.265807,0.427431,0.413373,0.416277,0
3721,0.430811,0.5397,0.259346,0.454124,0.635009,0.269248,0.426363,0.451382,0.415296,0
3722,0.504499,0.598853,0.226028,0.507976,0.668656,0.273429,0.26597,0.593177,0.404636,0
3723,0.4593,0.610038,0.291255,0.623131,0.70659,0.251364,0.427055,0.550871,0.449732,0
3724,0.412616,0.3649,0.280258,0.430827,0.581699,0.392071,0.455228,0.543299,0.330657,0
3725,0.537277,0.52712,0.411952,0.572543,0.558425,0.476384,0.331163,0.498107,0.45696,1
3726,0.545995,0.653403,0.225053,0.720827,0.601014,0.521959,0.551808,0.504462,0.465757,0
3727,0.495074,0.558574,0.314271,0.608251,0.566039,0.354564,0.583182,0.427439,0.363596,0
3728,0.507443,0.471159,0.415005,0.744629,0.574266,0.231766,0.400815,0.600783,0.564192,0
3729,0.532502,0.488972,0.280966,0.625001,0.581699,0.196295,0.427583,0.468549,0.465836,0
3730,0.478358,0.5435,0.36486,0.460303,0.556501,0.364534,0.244132,0.619713,0.59672,1
3731,0.43947,0.541651,0.140239,0.584836,0.569878,0.455927,0.553551,0.487561,0.45473,0
3732,0.445243,0.319043,0.491956,0.421773,0.387452,0.364484,0.608295,0.540013,0.331633,1
3733,0.498581,0.55761,0.162505,0.597477,0.695148,0.481093,0.40446,0.499944,0.325516,0
3734,0.500221,0.392857,0.496823,0.31749,0.583635,0.426526,0.469354,0.626276,0.596062,1
3735,0.606392,0.46578,0.541735,0.508952,0.492984,0.371032,0.203359,0.57388,0.696173,1
3736,0.637208,0.511916,0.243975,0.583016,0.557075,0.393653,0.654937,0.550161,0.117539,0
3737,0.474284,0.430273,0.496815,0.381579,0.517353,0.45951,0.539311,0.418574,0.456526,1
3738,0.497967,0.604872,0.247053,0.515338,0.581699,0.363284,0.387441,0.502458,0.633732,0
3739,0.512175,0.517325,0.32014,0.59536,0.5991,0.336533,0.596999,0.684972,0.447231,0
3740,0.471521,0.585813,0.325193,0.591313,0.639587,0.512422,0.338495,0.434777,0.497165,0
3741,0.613125,0.438924,0.438479,0.377188,0.581699,0.53339,0.275825,0.411815,0.351619,1
3742,0.489071,0.583156,0.327839,0.406819,0.480032,0.403579,0.480991,0.494254,0.345866,0
3743,0.54229,0.56397,0.514298,0.747421,0.540803,0.562198,0.506242,0.775358,0.324442,1
3744,0.498334,0.599823,0.421491,0.508932,0.739877,0.516395,0.496046,0.366331,0.56772,1
3745,0.545378,0.466782,0.56227,0.466261,0.522747,0.63343,0.555311,0.530767,0.577153,1
3746,0.376266,0.59808,0.369163,0.413305,0.601575,0.549788,0.50215,0.5923,0.539974,1
3747,0.467219,0.277968,0.533493,0.521537,0.649042,0.60755,0.531118,0.416621,0.516266,1
3748,0.572234,0.570001,0.252135,0.534941,0.582021,0.592942,0.46709,0.615605,0.201099,0
3749,0.528574,0.688329,0.374004,0.495254,0.529344,0.565598,0.391047,0.666296,0.496456,1
3750,0.401743,0.451264,0.217994,0.603036,0.673715,0.645854,0.456506,0.580674,0.523631,0
3751,0.514418,0.628881,0.204853,0.593632,0.612144,0.309405,0.433476,0.66014,0.31431,0
3752,0.474804,0.641847,0.217786,0.544502,0.63006,0.476554,0.327876,0.520608,0.622459,0
3753,0.606908,0.486763,0.522245,0.599683,0.581699,0.669249,0.413034,0.584877,0.461178,1
3754,0.474387,0.500786,0.291061,0.503046,0.490482,0.284216,0.442078,0.476801,0.348971,0
3755,0.536481,0.461917,0.253109,0.526919,0.5535,0.266413,0.40084,0.576743,0.358952,0
3756,0.451796,0.517104,0.363846,0.633377,0.607424,0.504876,0.483643,0.567974,0.49041,0
3757,0.559169,0.644931,0.407533,0.480494,0.561559,0.536701,0.419615,0.498595,0.508314,1
3758,0.496744,0.548583,0.263259,0.60579,0.549457,0.334934,0.616378,0.548334,0.417005,0
3759,0.517787,0.696162,0.10905,0.687925,0.737784,0.426591,0.339659,0.527054,0.451216,0
3760,0.41124,0.493334,0.217785,0.537087,0.68168,0.417896,0.478933,0.400771,0.644363,0
3761,0.456444,0.705593,0.510266,0.519985,0.52047,0.539372,0.447364,0.642877,0.445123,1
3762,0.531664,0.474062,0.327732,0.490278,0.655795,0.334852,0.364824,0.469344,0.373966,0
3763,0.522651,0.660314,0.576029,0.53283,0.693194,0.349079,0.351856,0.4284,0.332145,1
3764,0.560932,0.555942,0.529749,0.671808,0.567306,0.340011,0.407181,0.414852,0.360099,1
3765,0.505771,0.672543,0.247787,0.57841,0.711906,0.344068,0.455965,0.411739,0.493062,0
3766,0.580376,0.798093,0.462774,0.496318,0.490232,0.370048,0.488996,0.390479,0.464325,1
3767,0.503815,0.558061,0.133713,0.646456,0.699523,0.320168,0.419388,0.693617,0.378693,0
3768,0.541315,0.58627,0.18525,0.488511,0.580841,0.422652,0.366869,0.705147,0.468618,0
3769,0.505826,0.407634,0.383845,0.446014,0.573708,0.332285,0.37487,0.499711,0.46403,0
3770,0.371116,0.52641,0.352406,0.394213,0.635785,0.299845,0.466568,0.327487,0.643509,0
3771,0.573207,0.419531,0.643876,0.466535,0.532336,0.379862,0.5285,0.528589,0.575576,1
3772,0.479434,0.480769,0.185143,0.666272,0.593226,0.29827,0.466604,0.628253,0.311403,0
3773,0.623979,0.615532,0.266532,0.630806,0.608274,0.478941,0.276673,0.467868,0.345549,0
3774,0.331344,0.414434,0.291587,0.635069,0.674664,0.637256,0.542388,0.718688,0.560049,0
3775,0.41681,0.595903,0.257444,0.537998,0.634914,0.326653,0.54256,0.582546,0.355627,0
3776,0.462411,0.474815,0.268189,0.400046,0.571449,0.350277,0.575094,0.608961,0.564796,0
3777,0.455278,0.608252,0.392677,0.547376,0.581699,0.294842,0.298594,0.509468,0.356671,0
3778,0.68081,0.58073,0.605249,0.581554,0.345701,0.592817,0.147097,0.615755,0.365447,1
3779,0.470244,0.730074,0.438239,0.450594,0.536585,0.428734,0.564622,0.626435,0.385573,1
3780,0.442593,0.542335,0.369422,0.561133,0.589122,0.346066,0.426024,0.403989,0.380113,0
3781,0.393222,0.499907,0.245312,0.533472,0.713657,0.445392,0.460701,0.517888,0.326429,0
3782,0.549998,0.460239,0.319719,0.592757,0.798656,0.315077,0.604365,0.502502,0.655454,0
3783,0.448079,0.521788,0.363117,0.617717,0.718077,0.361005,0.507063,0.508315,0.434507,0
3784,0.490058,0.462381,0.434189,0.488422,0.600074,0.363212,0.56471,0.425191,0.581666,1
3785,0.492887,0.501477,0.220933,0.395907,0.622312,0.241922,0.368895,0.511004,0.471866,0
3786,0.422632,0.473306,0.341818,0.668188,0.555805,0.252683,0.285221,0.584219,0.640308,0
3787,0.671864,0.414924,0.342434,0.460738,0.562563,0.253157,0.523781,0.414885,0.643709,0
3788,0.52395,0.504498,0.327921,0.3861,0.525323,0.21229,0.451161,0.522394,0.254899,0
3789,0.504763,0.59697,0.299693,0.508545,0.511754,0.530384,0.552782,0.500299,0.462097,0
3790,0.491873,0.334574,0.334051,0.627878,0.511117,0.430882,0.359949,0.622502,0.274205,0
3791,0.406739,0.444238,0.239066,0.594286,0.718052,0.363541,0.582006,0.419905,0.329898,0
3792,0.665227,0.475124,0.5146,0.704009,0.570614,0.532343,0.500732,0.679345,0.41816,1
3793,0.486559,0.547332,0.353296,0.376581,0.581699,0.274543,0.471354,0.428533,0.469337,0
3794,0.528172,0.572015,0.107596,0.709663,0.595001,0.447317,0.499177,0.487782,0.47669,0
3795,0.52231,0.591216,0.219477,0.622009,0.713882,0.287776,0.704415,0.518431,0.764417,0
3796,0.510365,0.605119,0.341064,0.601914,0.661434,0.563493,0.453282,0.629217,0.455954,0
3797,0.539053,0.541375,0.172307,0.610309,0.561844,0.704406,0.552867,0.513316,0.493811,0
3798,0.58263,0.581528,0.533892,0.398747,0.38103,0.312689,0.599203,0.522259,0.51591,1
3799,0.493475,0.574372,0.578481,0.369401,0.222534,0.347788,0.421276,0.533843,0.497848,1
3800,0.536011,0.526511,0.1503,0.566475,0.604224,0.264254,0.397522,0.320205,0.698711,0
3801,0.443531,0.32345,0.557359,0.42281,0.52819,0.386445,0.560336,0.532673,0.444704,1
3802,0.518191,0.633721,0.252187,0.591018,0.548627,0.322322,0.577491,0.708847,0.388017,0
3803,0.521433,0.495793,0.769473,0.357374,0.5031,0.538027,0.446506,0.497446,0.467256,1
3804,0.494692,0.579344,0.415825,0.54261,0.6352,0.443143,0.31153,0.576242,0.500896,1
3805,0.507425,0.405961,0.384143,0.512896,0.439286,0.214436,0.482134,0.541117,0.430903,0
3806,0.505771,0.510059,0.618078,0.362533,0.580754,0.463104,0.573182,0.499354,0.539117,1
3807,0.527115,0.483327,0.603673,0.55574,0.407357,0.413879,0.436915,0.335661,0.491904,1
3808,0.439343,0.777446,0.276918,0.700222,0.672408,0.486224,0.65442,0.619357,0.535964,0
3809,0.511386,0.574883,0.276818,0.631056,0.73762,0.30316,0.549663,0.489459,0.449082,0
3810,0.530664,0.542032,0.430782,0.534153,0.530849,0.293897,0.451032,0.48234,0.644577,1
3811,0.58673,0.812898,0.667658,0.454637,0.526865,0.335954,0.396759,0.590937,0.51026,1
3812,0.467911,0.504113,0.249672,0.520473,0.643843,0.349021,0.385258,0.523783,0.607669,0
3813,0.420543,0.627833,0.017097,0.81693,0.744527,0.673593,0.541947,0.458765,0.360325,0
3814,0.49759,0.511891,0.726081,0.296546,0.357463,0.602738,0.396162,0.546531,0.600275,1
3815,0.513794,0.446391,0.344484,0.492619,0.653402,0.443759,0.426655,0.488451,0.482352,0
3816,0.525203,0.529977,0.475705,0.433648,0.357984,0.406393,0.41735,0.655454,0.594422,1
3817,0.341867,0.518834,0.18918,0.439771,0.592931,0.510611,0.604664,0.481034,0.378024,0
3818,0.500256,0.305833,0.318907,0.406479,0.647826,0.571672,0.497529,0.560865,0.585902,1
3819,0.518391,0.650175,0.400162,0.568499,0.57507,0.350322,0.214291,0.377177,0.490762,0
3820,0.430432,0.578484,0.24454,0.530284,0.540583,0.508921,0.438171,0.569673,0.550203,0
3821,0.476964,0.399711,0.442457,0.508613,0.572977,0.283235,0.380424,0.32905,0.288992,0
3822,0.501539,0.439818,0.594356,0.441818,0.474046,0.517639,0.465771,0.610287,0.539276,1
3823,0.38283,0.573682,0.251921,0.58557,0.617008,0.455098,0.488541,0.610085,0.494769,0
3824,0.461259,0.508328,0.590375,0.509634,0.418243,0.242857,0.54026,0.739455,0.231877,1
3825,0.578701,0.472511,0.459865,0.434102,0.508649,0.692564,0.557221,0.593525,0.56119,1
3826,0.517343,0.473747,0.458251,0.590105,0.724205,0.443475,0.452122,0.581101,0.658001,1
3827,0.396885,0.43401,0.389589,0.419897,0.672181,0.400782,0.390338,0.755364,0.65064,1
3828,0.565554,0.561592,0.203703,0.576314,0.590626,0.482267,0.501742,0.467362,0.497054,0
3829,0.545921,0.469898,0.253381,0.591513,0.581699,0.193211,0.419979,0.650862,0.201395,0
3830,0.514745,0.622132,0.920504,0.336979,0.33662,0.479795,0.300314,0.567947,0.641047,1
3831,0.413565,0.772667,0.248005,0.577092,0.526656,0.471948,0.559457,0.659892,0.468136,0
3832,0.523457,0.46847,0.727955,0.309494,0.496512,0.439698,0.509237,0.44663,0.467911,1
3833,0.525592,0.663432,0.514961,0.495534,0.581398,0.561359,0.411784,0.514243,0.419557,1
3834,0.605376,0.323212,0.330802,0.512074,0.461457,0.685452,0.489237,0.53574,0.540678,1
3835,0.387753,0.692623,0.391549,0.555128,0.618798,0.483882,0.534185,0.539806,0.487564,1
3836,0.472736,0.552037,0.580177,0.472509,0.486855,0.364581,0.313649,0.586248,0.435671,1
3837,0.446451,0.487994,0.36488,0.570527,0.542009,0.541079,0.5747,0.681237,0.503816,1
3838,0.480065,0.623509,0.299702,0.611737,0.749347,0.570438,0.481495,0.481175,0.638119,0
3839,0.539497,0.507634,0.07115,0.391329,0.902319,0.608175,0.681712,0.333327,0.423335,0
3840,0.397703,0.773577,0.459995,0.170318,0.505907,0.441069,0.445513,0.545789,0.686901,1
3841,0.50569,0.599867,0.483562,0.475982,0.437418,0.536537,0.444399,0.422523,0.362482,1
3842,0.476893,0.513794,0.273438,0.525696,0.563825,0.309871,0.442737,0.599358,0.377513,0
3843,0.487082,0.5586,0.399466,0.680189,0.581699,0.442907,0.192535,0.38455,0.412461,0
3844,0.621955,0.537689,0.406586,0.543212,0.74379,0.535553,0.477612,0.65001,0.432974,0
3845,0.441211,0.571601,0.362456,0.558154,0.713636,0.390653,0.324382,0.256066,0.44912,0
3846,0.55784,0.511501,0.394192,0.551266,0.571987,0.254826,0.50069,0.535531,0.44856,0
3847,0.54695,0.529605,0.149483,0.602,0.618222,0.379275,0.489093,0.34017,0.604413,0
3848,0.653086,0.529081,0.638095,0.637817,0.588891,0.276094,0.442405,0.466785,0.475772,1
3849,0.456475,0.523071,0.256334,0.425566,0.670399,0.23627,0.582199,0.624498,0.522493,0
3850,0.553146,0.494847,0.399912,0.599256,0.461446,0.447877,0.296401,0.615939,0.359301,1
3851,0.487765,0.765869,0.268416,0.517365,0.597056,0.443672,0.434451,0.539666,0.394093,0
3852,0.366594,0.59218,0.502188,0.403388,0.680783,0.432911,0.421741,0.528206,0.595224,1
3853,0.519005,0.600072,0.179818,0.622899,0.704294,0.297474,0.531216,0.54185,0.659013,0
3854,0.498029,0.656436,0.365132,0.567381,0.581699,0.584296,0.495427,0.705567,0.566972,1
3855,0.482343,0.520037,0.203638,0.601839,0.726175,0.296649,0.501321,0.673523,0.268992,0
3856,0.514954,0.547811,0.358103,0.486268,0.610734,0.392697,0.340945,0.515129,0.527376,0
3857,0.531247,0.503757,0.466297,0.468779,0.609983,0.455299,0.52019,0.621575,0.565361,1
3858,0.543361,0.661299,0.143841,0.606843,0.610783,0.396752,0.4691,0.455671,0.277566,0
3859,0.46424,0.613266,0.314204,0.602953,0.540953,0.377747,0.570741,0.437816,0.422502,0
3860,0.465549,0.580598,0.257486,0.572896,0.511495,0.252698,0.421848,0.672764,0.58403,0
3861,0.499284,0.443402,0.214119,0.490484,0.632329,0.40127,0.547647,0.529788,0.649149,0
3862,0.583737,0.563017,0.389359,0.567062,0.643169,0.461718,0.42688,0.714468,0.54085,1
3863,0.463579,0.61702,0.469878,0.46731,0.552749,0.424853,0.549429,0.533488,0.585011,1
3864,0.471835,0.565978,0.209262,0.450416,0.619464,0.323402,0.518856,0.494893,0.503569,0
3865,0.491329,0.716528,0.424156,0.59419,0.567082,0.453365,0.493875,0.581456,0.430497,1
3866,0.538242,0.527793,0.198101,0.553527,0.769767,0.452988,0.317658,0.53253,0.358929,0
3867,0.551154,0.652989,0.480161,0.573899,0.581699,0.206509,0.320366,0.859145,0.588099,1
3868,0.447551,0.518464,0.432812,0.479206,0.470441,0.274515,0.418909,0.454693,0.455122,1
3869,0.550793,0.516728,0.141109,0.600572,0.807432,0.254845,0.274505,0.455911,0.428283,0
3870,0.510353,0.675869,0.397814,0.484127,0.530838,0.272241,0.547523,0.586528,0.377959,0
3871,0.493833,0.504019,0.44862,0.470548,0.472801,0.378323,0.384332,0.729216,0.583796,1
3872,0.608186,0.445827,0.536839,0.541977,0.518767,0.313702,0.518256,0.387333,0.439331,1
3873,0.569267,0.609413,0.377913,0.555429,0.638227,0.680306,0.382273,0.342569,0.508696,1
3874,0.536972,0.530098,0.522762,0.572907,0.475166,0.249282,0.629165,0.433772,0.771677,1
3875,0.588447,0.753473,0.662337,0.527387,0.442678,0.344418,0.447854,0.599034,0.484103,1
3876,0.506707,0.352081,0.261729,0.510789,0.58441,0.668152,0.605707,0.497639,0.374249,0
3877,0.510037,0.533578,0.529508,0.414577,0.450382,0.499013,0.469812,0.500546,0.733453,1
3878,0.528831,0.482253,0.535084,0.523372,0.559422,0.250587,0.447978,0.626076,0.422166,1
3879,0.474621,0.724769,0.237284,0.492325,0.590444,0.57199,0.482839,0.451083,0.70828,0
3880,0.53374,0.332305,0.358824,0.534414,0.604714,0.467536,0.421225,0.482585,0.51981,0
3881,0.578324,0.342196,0.069006,0.787459,0.808083,0.367859,0.548772,0.261242,0.248449,0
3882,0.456995,0.640334,0.18508,0.562931,0.757826,0.395428,0.411805,0.694922,0.371671,0
3883,0.511581,0.501089,0.647226,0.384366,0.453883,0.331192,0.527688,0.689475,0.631235,1
3884,0.494126,0.648171,0.577798,0.453238,0.304896,0.241637,0.374992,0.546431,0.464364,1
3885,0.456713,0.485152,0.393009,0.556011,0.632295,0.300248,0.400522,0.635416,0.375155,0
3886,0.415771,0.426017,0.284127,0.50627,0.61879,0.241557,0.422634,0.496736,0.49432,0
3887,0.486473,0.800453,0.306339,0.507117,0.563588,0.280423,0.668167,0.65919,0.706899,0
3888,0.566463,0.564958,0.172217,0.604825,0.624975,0.444973,0.550845,0.534824,0.409037,0
3889,0.502413,0.496414,0.506165,0.423492,0.456577,0.420009,0.477197,0.59698,0.365171,1
3890,0.503115,0.528177,0.171566,0.50686,0.629437,0.431144,0.43891,0.611388,0.363492,0
3891,0.503092,0.501667,0.201949,0.585943,0.727336,0.679125,0.49433,0.396568,0.506258,0
3892,0.531801,0.5702,0.40675,0.417809,0.562518,0.253609,0.429739,0.538757,0.406696,0
3893,0.46274,0.616809,0.240982,0.583923,0.617916,0.468173,0.535584,0.531749,0.520197,0
3894,0.53455,0.501004,0.267887,0.624551,0.547931,0.296292,0.402773,0.422286,0.317758,0
3895,0.582311,0.570263,0.573306,0.459725,0.390122,0.221647,0.391097,0.467874,0.531771,1
3896,0.500003,0.557989,0.325149,0.593405,0.642305,0.512649,0.336779,0.406104,0.45894,0
3897,0.51875,0.543676,0.268177,0.592701,0.625746,0.370741,0.776723,0.607993,0.373127,0
3898,0.515758,0.540794,0.444586,0.463802,0.540576,0.436358,0.592515,0.671961,0.419369,1
3899,0.545226,0.759293,0.230754,0.605488,0.666021,0.605705,0.339398,0.397426,0.451903,0
3900,0.414281,0.505752,0.583239,0.37442,0.50221,0.414823,0.190131,0.669995,0.674395,1
3901,0.519192,0.440628,0.654618,0.298157,0.385508,0.338738,0.396576,0.499931,0.504873,1
3902,0.490141,0.586583,0.272715,0.511879,0.494982,0.524651,0.59944,0.589742,0.444164,0
3903,0.647125,0.46049,0.54023,0.533029,0.562185,0.476247,0.4895,0.560506,0.429457,1
3904,0.161109,0.416396,0.272887,0.628545,0.78329,0.24499,0.606556,0.457914,0.620369,0
3905,0.441843,0.483623,0.289922,0.600712,0.711823,0.268968,0.354779,0.470842,0.418121,0
3906,0.535622,0.560511,0.266466,0.602265,0.588827,0.482635,0.355401,0.21821,0.366047,0
3907,0.507026,0.575754,0.438356,0.525733,0.471128,0.378849,0.585662,0.485956,0.724096,1
3908,0.523075,0.48549,0.593529,0.41409,0.45109,0.5849,0.465106,0.577495,0.555438,1
3909,0.517403,0.63195,0.107592,0.711196,0.771789,0.446618,0.353778,0.480655,0.445878,0
3910,0.425978,0.624803,0.208037,0.599614,0.712679,0.245412,0.251194,0.285369,0.457645,0
3911,0.505771,0.299348,0.138921,0.588594,0.748952,0.573002,0.512215,0.3082,0.430685,0
3912,0.577377,0.373928,0.452531,0.641094,0.583548,0.449962,0.378691,0.531886,0.541557,1
3913,0.252077,0.718714,0.436446,0.359596,0.563976,0.594994,0.461349,0.361411,0.42791,1
3914,0.510337,0.523932,0.118634,0.590695,0.67025,0.339938,0.282156,0.59498,0.429934,0
3915,0.513573,0.589786,0.364783,0.599155,0.541641,0.339778,0.165448,0.624245,0.486341,0
3916,0.591377,0.58038,0.354699,0.563755,0.643664,0.686651,0.518124,0.595177,0.518648,1
3917,0.505771,0.512094,0.296434,0.570345,0.497852,0.386983,0.35613,0.638785,0.514616,0
3918,0.576231,0.436358,0.64233,0.663864,0.445685,0.483393,0.251073,0.523808,0.591609,1
3919,0.518989,0.704611,0.479664,0.615605,0.592374,0.157696,0.321018,0.848166,0.58559,1
3920,0.493833,0.61309,0.36442,0.484804,0.581699,0.590048,0.493048,0.617272,0.652796,1
3921,0.568493,0.576647,0.603211,0.649538,0.383776,0.596971,0.469793,0.661077,0.300267,1
3922,0.515084,0.656787,0.200629,0.586348,0.625105,0.600359,0.445269,0.403957,0.331577,0
3923,0.554322,0.467801,0.504663,0.557593,0.556381,0.390764,0.590883,0.572773,0.429456,1
3924,0.522655,0.543291,0.106139,0.623049,0.556451,0.651857,0.438022,0.608579,0.392577,0
3925,0.538571,0.604225,0.331177,0.439422,0.569054,0.261154,0.420297,0.575006,0.554512,0
3926,0.553655,0.635479,0.304185,0.568938,0.645129,0.286609,0.435063,0.400588,0.625862,0
3927,0.636087,0.502914,0.642464,0.534576,0.444583,0.389787,0.506595,0.529229,0.535792,1
3928,0.501016,0.33215,0.331732,0.590944,0.648713,0.658188,0.445773,0.526593,0.59352,1
3929,0.536521,0.651242,0.450849,0.552621,0.569292,0.528438,0.307059,0.508186,0.478567,1
3930,0.50134,0.49608,0.205869,0.498574,0.584631,0.361812,0.508886,0.546108,0.398743,0
3931,0.539028,0.667036,0.214714,0.498985,0.723335,0.447487,0.36707,0.558476,0.541925,0
3932,0.485163,0.541886,0.222909,0.504705,0.714078,0.296568,0.418448,0.444216,0.792148,0
3933,0.522478,0.650356,0.306653,0.563783,0.654287,0.336814,0.464986,0.454692,0.398839,0
3934,0.500522,0.32731,0.126119,0.439692,0.692676,0.676667,0.345544,0.654882,0.542792,0
3935,0.501033,0.546901,0.272389,0.510403,0.49652,0.545232,0.478223,0.526321,0.500865,0
3936,0.391408,0.702356,0.178954,0.525479,0.583439,0.440358,0.475822,0.4703,0.323408,0
3937,0.489368,0.632385,0.246741,0.516691,0.581699,0.429967,0.504048,0.652027,0.316213,0
3938,0.515939,0.553445,0.557128,0.488312,0.531467,0.367183,0.564081,0.628538,0.448783,1
3939,0.591588,0.656129,0.48237,0.579548,0.437943,0.377778,0.504855,0.501856,0.333634,1
3940,0.54402,0.495517,0.350471,0.524439,0.51878,0.382947,0.52654,0.587485,0.218379,0
3941,0.616424,0.500692,0.428682,0.662085,0.728486,0.525572,0.588043,0.577263,0.593769,1
3942,0.587776,0.711966,0.502569,0.64753,0.581699,0.445292,0.372032,0.660416,0.571577,1
3943,0.507272,0.475824,0.330673,0.508171,0.654574,0.424934,0.339932,0.509574,0.572582,0
3944,0.414513,0.405724,0.125996,0.514233,0.5693,0.397332,0.41844,0.668102,0.445947,0
3945,0.556618,0.463232,0.475822,0.436899,0.589825,0.314255,0.66549,0.682038,0.397156,1
3946,0.433878,0.552565,0.216266,0.467944,0.57913,0.613268,0.519803,0.549572,0.489385,0
3947,0.533768,0.656345,0.51583,0.49082,0.57888,0.547924,0.559635,0.328468,0.448991,1
3948,0.604045,0.617474,0.266329,0.414059,0.56663,0.472741,0.338117,0.480844,0.211656,0
3949,0.506058,0.5806,0.43949,0.560698,0.530359,0.395736,0.540945,0.468653,0.628552,1
3950,0.562977,0.661818,0.288499,0.436317,0.599296,0.491964,0.496999,0.600108,0.347244,0
3951,0.463709,0.53808,0.310792,0.524297,0.581699,0.526875,0.421089,0.466953,0.640355,0
3952,0.505508,0.490613,0.642287,0.650651,0.442013,0.484157,0.228356,0.438977,0.12779,1
3953,0.501973,0.478979,0.416633,0.539526,0.561451,0.205004,0.330996,0.663954,0.172106,0
3954,0.500867,0.553917,0.299425,0.504774,0.610117,0.293415,0.538395,0.672904,0.353824,0
3955,0.501907,0.644875,0.248845,0.576483,0.706576,0.393404,0.454797,0.565541,0.56419,0
3956,0.543032,0.614775,0.505615,0.478708,0.547513,0.508239,0.390549,0.393136,0.407728,1
3957,0.512525,0.431072,0.412791,0.561202,0.544334,0.365922,0.366473,0.558719,0.46806,1
3958,0.53456,0.66964,0.416083,0.391379,0.524409,0.4519,0.547115,0.674346,0.510638,1
3959,0.429164,0.580293,0.406923,0.502057,0.595008,0.534126,0.331526,0.652525,0.536493,1
3960,0.473573,0.52361,0.273411,0.488444,0.555171,0.527949,0.62434,0.642404,0.305651,0
3961,0.495755,0.529738,0.606922,0.60575,0.35375,0.397212,0.578045,0.516584,0.464202,1
3962,0.542958,0.566894,0.184755,0.603058,0.643774,0.339827,0.224361,0.585883,0.573966,0
3963,0.462379,0.47483,0.274493,0.509584,0.527196,0.405899,0.458227,0.366226,0.568867,0
3964,0.464976,0.55771,0.220361,0.585194,0.597911,0.529309,0.404025,0.529052,0.281113,0
3965,0.538587,0.502291,0.331299,0.493849,0.581699,0.387614,0.419066,0.372016,0.630119,0
3966,0.516319,0.432707,0.458232,0.64238,0.459561,0.420542,0.627896,0.250587,0.560572,1
3967,0.53098,0.680876,0.24805,0.398229,0.524448,0.593799,0.555795,0.629654,0.578654,0
3968,0.420681,0.482379,0.33874,0.508063,0.474211,0.228746,0.436274,0.481553,0.490883,0
3969,0.592522,0.664441,0.382639,0.487253,0.558282,0.408304,0.341651,0.457476,0.379933,0
3970,0.449595,0.514025,0.332796,0.607256,0.581699,0.512669,0.510526,0.605215,0.564445,0
3971,0.546928,0.561177,0.60354,0.633457,0.356554,0.60069,0.572913,0.606122,0.312561,1
3972,0.505404,0.593749,0.291257,0.501703,0.487989,0.32956,0.424597,0.621615,0.337204,0
3973,0.367295,0.468307,0.078837,0.61969,0.620355,0.279759,0.40933,0.273326,0.48565,0
3974,0.547945,0.559849,0.246024,0.447385,0.552776,0.71827,0.556956,0.403657,0.645673,0
3975,0.575654,0.409961,0.569486,0.560508,0.581699,0.350916,0.397743,0.456635,0.440985,1
3976,0.516484,0.472721,0.327634,0.455184,0.62649,0.31204,0.448963,0.46539,0.458535,0
3977,0.50586,0.443696,0.369776,0.468024,0.449441,0.495635,0.528384,0.468899,0.758987,1
3978,0.474944,0.449768,0.402112,0.69101,0.490067,0.378626,0.323623,0.432379,0.411521,0
3979,0.553558,0.744571,0.253369,0.612893,0.579351,0.709319,0.212692,0.648731,0.432105,0
3980,0.500128,0.546529,0.342627,0.429124,0.381244,0.296431,0.49128,0.616076,0.220703,0
3981,0.610851,0.711669,0.792779,0.441845,0.57769,0.614,0.540587,0.494582,0.572085,1
3982,0.548685,0.664622,0.570299,0.574896,0.620799,0.273219,0.554308,0.320901,0.6339,1
3983,0.435141,0.485435,0.443153,0.560361,0.559078,0.45076,0.416458,0.526694,0.579409,1
3984,0.509986,0.508805,0.528898,0.415923,0.452148,0.47467,0.514581,0.529506,0.604801,1
3985,0.459683,0.413582,0.363766,0.637919,0.548196,0.552539,0.453327,0.529324,0.390966,0
3986,0.57748,0.632315,0.322262,0.454199,0.625007,0.219699,0.464283,0.366371,0.60561,0
3987,0.512091,0.496917,0.366334,0.51201,0.438611,0.297745,0.429629,0.328355,0.677927,1
3988,0.424079,0.374634,0.432245,0.461483,0.589375,0.712767,0.483809,0.859393,0.529,1
3989,0.450224,0.498649,0.276075,0.784966,0.524353,0.437244,0.443926,0.550187,0.619294,0
3990,0.460275,0.575286,0.542268,0.574489,0.642451,0.545936,0.515303,0.8141,0.367796,1
3991,0.537524,0.533104,0.340573,0.516178,0.738169,0.706034,0.454312,0.644305,0.527853,0
3992,0.464795,0.604617,0.224253,0.600035,0.684042,0.505259,0.578029,0.608448,0.421149,0
3993,0.504029,0.350492,0.34314,0.60653,0.626326,0.428405,0.521218,0.44364,0.343942,0
3994,0.546056,0.55676,0.230044,0.416319,0.624243,0.43643,0.219822,0.533862,0.547226,0
3995,0.509493,0.655363,0.250061,0.572255,0.58974,0.376232,0.481707,0.549502,0.370884,0
3996,0.480481,0.535758,0.324982,0.637635,0.613172,0.334709,0.373166,0.605295,0.591098,0
3997,0.466833,0.58454,0.298402,0.349392,0.527309,0.328094,0.324514,0.605333,0.50538,0
3998,0.403826,0.348166,0.175652,0.486976,0.590378,0.500043,0.327377,0.556065,0.476191,0
3999,0.543607,0.566272,0.37009,0.47996,0.575486,0.395262,0.500648,0.530938,0.401984,0
4000,0.56951,0.670285,0.114041,0.436492,0.607463,0.182334,0.350255,0.395585,0.512988,0
4001,0.519853,0.58538,0.277053,0.50655,0.697893,0.300262,0.562184,0.519848,0.605843,0
4002,0.502851,0.479829,0.324865,0.507632,0.618684,0.33407,0.497171,0.521313,0.593195,0
4003,0.457882,0.521077,0.418851,0.404403,0.560385,0.515488,0.509509,0.49514,0.640258,1
4004,0.271843,0.539244,0.353212,0.374415,0.581699,0.416761,0.583442,0.451414,0.625534,1
4005,0.470445,0.558524,0.607542,0.621385,0.39336,0.3621,0.139063,0.514723,0.495229,1
4006,0.602395,0.68267,0.633232,0.587625,0.517775,0.504341,0.484995,0.51424,0.479738,1
4007,0.503161,0.565491,0.326531,0.388552,0.599386,0.620245,0.642647,0.582062,0.647591,1
4008,0.507753,0.341494,0.496721,0.232874,0.469372,0.287096,0.490401,0.503065,0.280242,1
4009,0.518678,0.661582,0.201978,0.549185,0.606982,0.296707,0.498617,0.556895,0.549796,0
4010,0.632768,0.62661,0.774286,0.621067,0.453565,0.617677,0.319501,0.569742,0.315134,1
4011,0.452868,0.500517,0.447402,0.61686,0.482741,0.277555,0.431781,0.653629,0.498581,1
4012,0.527106,0.412016,0.36512,0.574652,0.510207,0.410219,0.470072,0.502468,0.681325,1
4013,0.487802,0.4359,0.2482,0.51756,0.577165,0.706861,0.573215,0.464819,0.36203,0
4014,0.505771,0.556112,0.416734,0.571229,0.576074,0.227537,0.521598,0.413049,0.373236,0
4015,0.532351,0.819503,0.471957,0.520852,0.566279,0.257111,0.518159,0.525923,0.520465,1
4016,0.545211,0.663786,0.350807,0.641155,0.72593,0.393697,0.506891,0.612642,0.515774,0
4017,0.518975,0.490709,0.219738,0.561072,0.597696,0.412874,0.590049,0.613477,0.580529,0
4018,0.563859,0.402901,0.142294,0.529798,0.629856,0.597385,0.509386,0.309479,0.465885,0
4019,0.554509,0.643177,0.570305,0.573707,0.601548,0.266678,0.508044,0.490253,0.636539,1
4020,0.592784,0.615882,0.32728,0.551419,0.63538,0.56231,0.546994,0.54773,0.418679,0
4021,0.505771,0.586314,0.324889,0.556669,0.664105,0.28486,0.3561,0.416615,0.556501,0
4022,0.55678,0.578724,0.320981,0.577585,0.593036,0.35114,0.197488,0.513826,0.414811,0
4023,0.508982,0.549715,0.313382,0.380062,0.536409,0.225432,0.64029,0.559921,0.550057,0
4024,0.471071,0.577103,0.557677,0.490456,0.659685,0.456889,0.231125,0.528439,0.438084,1
4025,0.439096,0.655934,0.356354,0.612555,0.56118,0.371299,0.420711,0.343402,0.41238,0
4026,0.481097,0.529675,0.562137,0.578905,0.559355,0.235894,0.641904,0.639454,0.322106,1
4027,0.491884,0.456331,0.498871,0.598573,0.441834,0.469076,0.333452,0.564115,0.405713,1
4028,0.533173,0.61615,0.320408,0.52926,0.65131,0.540685,0.260189,0.459553,0.541903,0
4029,0.5096,0.596132,0.314214,0.459977,0.644544,0.459093,0.502093,0.545017,0.398401,0
4030,0.636081,0.64962,0.351623,0.776775,0.606749,0.207831,0.593032,0.452728,0.593015,0
4031,0.552117,0.592879,0.203277,0.431723,0.746191,0.636131,0.495391,0.500779,0.435283,0
4032,0.497664,0.604726,0.197197,0.510511,0.729885,0.468196,0.528281,0.247756,0.384811,0
4033,0.391799,0.380961,0.282024,0.473272,0.692546,0.286286,0.399454,0.534057,0.435079,0
4034,0.408162,0.500552,0.12672,0.583436,0.576871,0.467581,0.409512,0.678982,0.461452,0
4035,0.498246,0.488376,0.223744,0.565127,0.605428,0.28141,0.549174,0.571735,0.457165,0
4036,0.624772,0.66606,0.664101,0.476577,0.501566,0.178625,0.445966,0.561261,0.522857,1
4037,0.513538,0.642474,0.473689,0.611158,0.573018,0.360783,0.436057,0.372751,0.573182,1
4038,0.671016,0.471989,0.790019,0.67138,0.545756,0.397758,0.459477,0.582151,0.306946,1
4039,0.494462,0.539103,0.524651,0.656618,0.411871,0.649287,0.606009,0.509972,0.474606,1
4040,0.508103,0.375997,0.406089,0.49512,0.467934,0.257694,0.358969,0.49867,0.419897,1
4041,0.451943,0.576962,0.243485,0.570438,0.55044,0.439273,0.447642,0.426112,0.529246,0
4042,0.537112,0.460552,0.308417,0.604729,0.590453,0.413262,0.404847,0.535458,0.531129,0
4043,0.416217,0.538354,0.621376,0.592376,0.562165,0.405279,0.476891,0.569877,0.520176,1
4044,0.557231,0.604866,0.57595,0.588318,0.668804,0.332436,0.405573,0.29811,0.550468,1
4045,0.536032,0.533153,0.325519,0.570896,0.402967,0.526196,0.546778,0.74832,0.565519,1
4046,0.503727,0.521015,0.415968,0.595462,0.601076,0.322413,0.357008,0.52419,0.529456,1
4047,0.495501,0.486467,0.415107,0.514552,0.605814,0.454055,0.438584,0.568627,0.549311,1
4048,0.513488,0.474122,0.327848,0.49866,0.627024,0.322956,0.368262,0.484198,0.399397,0
4049,0.416816,0.541665,0.41956,0.616891,0.578909,0.565885,0.589743,0.692327,0.64998,1
4050,0.563784,0.608966,0.443721,0.54072,0.579024,0.279645,0.395796,0.378277,0.595405,1
4051,0.508741,0.557767,0.202048,0.442752,0.591121,0.321054,0.467119,0.510697,0.558847,0
4052,0.44939,0.551311,0.268147,0.472049,0.623246,0.49509,0.49067,0.478083,0.269418,0
4053,0.481981,0.469403,0.52037,0.421106,0.581699,0.425776,0.416627,0.424561,0.628729,1
4054,0.565116,0.506646,0.345779,0.512631,0.58065,0.424091,0.483588,0.458764,0.294638,0
4055,0.55239,0.640193,0.236964,0.539485,0.679035,0.544019,0.337286,0.466839,0.595604,0
4056,0.542972,0.621683,0.304074,0.477087,0.482013,0.417043,0.568671,0.429977,0.463145,0
4057,0.613952,0.577256,0.40758,0.685174,0.505129,0.327452,0.548511,0.675606,0.259825,0
4058,0.40657,0.401756,0.584424,0.398034,0.581699,0.490954,0.174918,0.483697,0.447868,1
4059,0.474979,0.678913,0.287391,0.389267,0.597653,0.398154,0.439276,0.458751,0.301083,0
4060,0.501021,0.620431,0.364728,0.543306,0.574396,0.350951,0.484271,0.509575,0.48966,0
4061,0.456089,0.613357,0.355865,0.616678,0.565166,0.357081,0.380465,0.41606,0.486826,0
4062,0.509581,0.456924,0.493994,0.484664,0.473185,0.515435,0.433049,0.598725,0.76594,1
4063,0.509643,0.642176,0.152189,0.403483,0.619148,0.619739,0.433091,0.474543,0.725295,0
4064,0.477258,0.522292,0.363734,0.549436,0.581699,0.488604,0.508522,0.495171,0.61417,1
4065,0.388073,0.309874,0.124816,0.499595,0.408106,0.467287,0.57529,0.621767,0.6043,0
4066,0.502339,0.630391,0.242369,0.544379,0.635989,0.502237,0.521746,0.835304,0.544719,0
4067,0.444884,0.594463,0.4228,0.731338,0.506299,0.498783,0.439755,0.478245,0.952463,1
4068,0.463203,0.631498,0.184993,0.314192,0.633961,0.40017,0.350768,0.69005,0.580319,0
4069,0.556204,0.575841,0.408634,0.482244,0.533502,0.531168,0.41641,0.530582,0.660254,1
4070,0.395324,0.543851,0.23216,0.561185,0.448411,0.546591,0.459982,0.720757,0.667773,0
4071,0.711652,0.494575,0.428222,0.704546,0.584103,0.514201,0.433931,0.570447,0.483345,1
4072,0.510452,0.420286,0.21476,0.521577,0.567439,0.3151,0.547655,0.510436,0.547556,0
4073,0.554131,0.488546,0.538865,0.522357,0.558417,0.604426,0.562325,0.335389,0.476381,1
4074,0.655707,0.630066,0.524237,0.926117,0.562956,0.349443,0.355603,0.454411,0.417906,1
4075,0.516367,0.627104,0.277356,0.623389,0.58491,0.383142,0.556587,0.458184,0.636695,0
4076,0.290639,0.454856,0.279422,0.277794,0.772711,0.346567,0.36697,0.523882,0.342622,0
4077,0.515889,0.527935,0.311468,0.544842,0.581699,0.179091,0.477267,0.528955,0.452221,0
4078,0.463981,0.511711,0.263494,0.484888,0.472862,0.35255,0.647057,0.645548,0.483537,0
4079,0.631684,0.560506,0.573335,0.666343,0.59047,0.34346,0.334171,0.553903,0.440398,1
4080,0.535526,0.558603,0.407174,0.418527,0.554743,0.438126,0.41799,0.640783,0.431708,1
4081,0.422211,0.464925,0.219578,0.510263,0.589421,0.735216,0.405405,0.321433,0.439996,0
4082,0.505771,0.435946,0.491943,0.769531,0.561965,0.462404,0.327938,0.758191,0.374,1
4083,0.600393,0.600327,0.556711,0.726821,0.428438,0.295631,0.533355,0.590466,0.58469,1
4084,0.46213,0.446328,0.431588,0.544895,0.59036,0.700422,0.474646,0.857571,0.582728,1
4085,0.516513,0.567751,0.374064,0.722825,0.581503,0.486431,0.478105,0.678062,0.37047,0
4086,0.467952,0.611749,0.234566,0.469602,0.541905,0.647883,0.367383,0.568369,0.410384,0
4087,0.467329,0.598703,0.306683,0.551894,0.606511,0.137535,0.454584,0.42468,0.349336,0
4088,0.487436,0.502426,0.457876,0.642674,0.561126,0.239299,0.372359,0.322825,0.241614,0
4089,0.475677,0.459045,0.260506,0.40992,0.491687,0.308431,0.373591,0.511446,0.620307,0
4090,0.351728,0.478958,0.301358,0.418026,0.627418,0.619716,0.450344,0.544484,0.487499,0
4091,0.452354,0.53836,0.292765,0.644439,0.722885,0.133749,0.453885,0.433665,0.37118,0
4092,0.503185,0.550389,0.494346,0.561062,0.537103,0.531579,0.400386,0.570002,0.361182,1
4093,0.524836,0.508114,0.394615,0.729226,0.536088,0.504577,0.627793,0.606246,0.447986,1
4094,0.358123,0.587383,0.178333,0.474372,0.703313,0.661726,0.486989,0.351741,0.341556,0
4095,0.486085,0.598086,0.310558,0.580492,0.575416,0.253353,0.416085,0.540691,0.603646,0
4096,0.475368,0.500134,0.337431,0.585798,0.574404,0.322384,0.487735,0.643654,0.682008,0
4097,0.46486,0.552582,0.443581,0.497593,0.664559,0.639266,0.434158,0.602475,0.29964,1
4098,0.581786,0.697284,0.458027,0.58677,0.44697,0.613764,0.366377,0.2809,0.335459,1
4099,0.386015,0.364255,0.29683,0.512737,0.629786,0.305733,0.571732,0.612826,0.582889,0
4100,0.425552,0.388523,0.280922,0.518597,0.672888,0.230782,0.493404,0.485616,0.443619,0
4101,0.452885,0.407996,0.282124,0.490081,0.716282,0.344915,0.579788,0.537418,0.530693,0
4102,0.511738,0.616293,0.306433,0.330662,0.614469,0.370248,0.422301,0.592848,0.216643,0
4103,0.529474,0.543524,0.430821,0.433889,0.506468,0.313513,0.530345,0.261686,0.649829,1
4104,0.431815,0.642373,0.276375,0.369738,0.689771,0.743634,0.684636,0.562955,0.332954,0
4105,0.509452,0.521451,0.314614,0.460634,0.476509,0.321688,0.501028,0.268914,0.205901,0
4106,0.546364,0.492558,0.346888,0.511676,0.5943,0.432855,0.45604,0.548197,0.687681,1
4107,0.455537,0.501627,0.542054,0.421889,0.664912,0.570793,0.467051,0.466522,0.388719,1
4108,0.565665,0.524261,0.387666,0.547515,0.689223,0.471897,0.488996,0.498985,0.644204,1
4109,0.62589,0.550892,0.438827,0.461185,0.534525,0.572644,0.273285,0.399132,0.433432,1
4110,0.513347,0.579752,0.193481,0.368848,0.851667,0.553744,0.470428,0.446363,0.566453,0
4111,0.38602,0.376641,0.30981,0.903013,0.742244,0.363716,0.324557,0.556972,0.588763,0
4112,0.744406,0.549641,0.521196,0.715864,0.580524,0.425108,0.340147,0.673103,0.421265,1
4113,0.497893,0.532978,0.443903,0.542025,0.478319,0.253971,0.363705,0.450256,0.390493,1
4114,0.540135,0.670431,0.380795,0.413063,0.416416,0.505721,0.427864,0.447883,0.330542,1
4115,0.484267,0.565311,0.220576,0.710894,0.585403,0.278996,0.699657,0.549334,0.621754,0
4116,0.343549,0.639991,0.318021,0.385931,0.617817,0.259255,0.357249,0.557992,0.533946,0
4117,0.458389,0.453575,0.196112,0.572146,0.764363,0.338922,0.540306,0.489953,0.335216,0
4118,0.479839,0.618857,0.28392,0.516992,0.631407,0.520229,0.525156,0.546091,0.50402,0
4119,0.392059,0.363156,0.319854,0.505645,0.817842,0.378036,0.58627,0.503313,0.264253,0
4120,0.641042,0.433267,0.256151,0.771855,0.533945,0.422509,0.29674,0.433767,0.524336,0
4121,0.552014,0.601668,0.484635,0.484531,0.623019,0.318391,0.445964,0.653325,0.429897,1
4122,0.528747,0.659466,0.28405,0.365443,0.419533,0.64543,0.461276,0.540252,0.424753,0
4123,0.412372,0.562139,0.245068,0.429349,0.724491,0.577617,0.575084,0.575837,0.384169,0
4124,0.505771,0.621339,0.298134,0.418241,0.563696,0.325753,0.186457,0.510181,0.426037,0
4125,0.379976,0.393183,0.296403,0.445421,0.783249,0.212416,0.388192,0.454548,0.454086,0
4126,0.384245,0.794596,0.460668,0.315645,0.518532,0.44076,0.386003,0.549869,0.652553,1
4127,0.453783,0.506932,0.450212,0.511243,0.534658,0.250628,0.367092,0.562917,0.345241,1
4128,0.538263,0.700076,0.397691,0.300564,0.545412,0.274348,0.545585,0.549752,0.349018,0
4129,0.59813,0.609454,0.265517,0.654995,0.55887,0.593549,0.32212,0.355485,0.613717,0
4130,0.505771,0.356635,0.287185,0.606142,0.734219,0.548932,0.503041,0.495296,0.453815,0
4131,0.472886,0.509382,0.474634,0.54801,0.514666,0.230029,0.302281,0.573238,0.40911,1
4132,0.477093,0.369794,0.349517,0.526456,0.589613,0.409883,0.46276,0.243728,0.410562,0
4133,0.415153,0.507451,0.419774,0.449729,0.565681,0.500544,0.454384,0.421395,0.601099,1
4134,0.366115,0.581977,0.369019,0.359072,0.564834,0.472939,0.496105,0.592902,0.519722,1
4135,0.565251,0.674758,0.237251,0.564919,0.577279,0.659473,0.534113,0.437749,0.514629,0
4136,0.489046,0.551123,0.220074,0.560942,0.608338,0.408126,0.438955,0.462939,0.286465,0
4137,0.495381,0.482723,0.402224,0.387548,0.559921,0.36639,0.341684,0.405517,0.644235,1
4138,0.516735,0.529093,0.514244,0.526803,0.565582,0.530479,0.417327,0.725403,0.331655,1
4139,0.44527,0.383996,0.189569,0.662446,0.646922,0.364761,0.3529,0.395311,0.731335,0
4140,0.609638,0.593565,0.21929,0.433982,0.615672,0.479928,0.655296,0.586208,0.565637,0
4141,0.37323,0.558776,0.461422,0.136616,0.546506,0.470285,0.388,0.564052,0.455852,1
4142,0.582011,0.552583,0.53053,0.697029,0.576581,0.414942,0.66263,0.651564,0.459333,1
4143,0.502014,0.504202,0.214673,0.557914,0.704184,0.475596,0.398743,0.514786,0.533048,0
4144,0.493766,0.523194,0.314394,0.472351,0.598531,0.485168,0.357593,0.669463,0.55426,0
4145,0.547258,0.380881,0.347733,0.760632,0.608087,0.477439,0.450062,0.339444,0.375669,0
4146,0.681443,0.65843,0.514395,0.86278,0.53879,0.542074,0.57922,0.459513,0.373277,1
4147,0.406772,0.575529,0.444048,0.54144,0.635196,0.430062,0.459657,0.564474,0.459113,1
4148,0.514471,0.688719,0.505971,0.507533,0.490183,0.387576,0.5973,0.491231,0.579907,1
4149,0.533798,0.611017,0.352061,0.465495,0.540004,0.303106,0.48061,0.428287,0.369793,0
4150,0.343787,0.451438,0.389449,0.28746,0.639718,0.243247,0.29762,0.675451,0.695577,1
4151,0.629696,0.599279,0.256729,0.58097,0.523141,0.354853,0.363651,0.458957,0.796439,0
4152,0.610083,0.593934,0.255921,0.470409,0.527258,0.396525,0.469605,0.915683,0.333466,0
4153,0.514829,0.488467,0.311371,0.564836,0.541469,0.259911,0.43143,0.545325,0.831685,0
4154,0.41993,0.514971,0.208944,0.445629,0.626238,0.358168,0.515507,0.442506,0.537766,0
4155,0.532077,0.508005,0.340979,0.72467,0.712469,0.590649,0.397564,0.671338,0.464871,0
4156,0.55449,0.398503,0.37148,0.59802,0.605383,0.481692,0.457992,0.549921,0.451394,0
4157,0.486778,0.463844,0.372298,0.320456,0.573319,0.296795,0.441348,0.504638,0.552169,1
4158,0.679963,0.611627,0.388401,0.645736,0.642935,0.500005,0.441943,0.737377,0.29652,0
4159,0.493979,0.442334,0.307888,0.662842,0.579705,0.396104,0.549088,0.624015,0.271346,0
4160,0.542138,0.495029,0.238398,0.608888,0.627861,0.197163,0.473307,0.445654,0.459867,0
4161,0.540845,0.526426,0.412069,0.477009,0.458542,0.546974,0.393309,0.608179,0.554382,1
4162,0.508089,0.594498,0.381592,0.328047,0.64144,0.422501,0.263823,0.45795,0.169874,0
4163,0.415448,0.360572,0.218277,0.605588,0.684479,0.402632,0.345912,0.559863,0.303753,0
4164,0.480936,0.42458,0.342426,0.53158,0.713669,0.440245,0.508309,0.602375,0.301459,0
4165,0.630223,0.315109,0.359021,0.723642,0.477626,0.36051,0.48765,0.596213,0.520987,0
4166,0.594163,0.523917,0.476137,0.594155,0.508576,0.551425,0.535288,0.740002,0.382564,1
4167,0.481084,0.201372,0.318732,0.249394,0.646608,0.504357,0.508652,0.629608,0.620529,1
4168,0.506041,0.510858,0.336615,0.733494,0.545214,0.347325,0.492339,0.508206,0.677279,0
4169,0.607073,0.633956,0.219431,0.576621,0.628236,0.481214,0.550629,0.582265,0.365795,0
4170,0.502219,0.556285,0.286034,0.57144,0.70673,0.598349,0.481348,0.505526,0.443422,0
4171,0.587169,0.429226,0.295212,0.813045,0.528195,0.365389,0.628481,0.431668,0.516404,0
4172,0.566397,0.600736,0.345995,0.472361,0.389167,0.474499,0.38493,0.586018,0.548976,1
4173,0.58271,0.520812,0.476458,0.47193,0.55942,0.638528,0.421066,0.692637,0.477293,1
4174,0.453867,0.478998,0.308146,0.508954,0.714992,0.385723,0.399427,0.606616,0.311516,0
4175,0.649672,0.589962,0.332661,0.751358,0.574822,0.500787,0.67732,0.459342,0.58257,0
4176,0.362405,0.296934,0.239306,0.669993,0.749818,0.273475,0.493619,0.514626,0.59052,0
4177,0.602341,0.513605,0.332613,0.270362,0.637374,0.381687,0.364223,0.554417,0.307308,0
4178,0.635466,0.43144,0.25116,0.460112,0.690508,0.348567,0.411216,0.291348,0.615252,0
4179,0.571536,0.552034,0.24426,0.521566,0.793694,0.262937,0.492988,0.559173,0.434032,0
4180,0.671328,0.590496,0.408524,0.515261,0.542844,0.388548,0.593868,0.682101,0.406628,1
4181,0.413038,0.565143,0.365871,0.477523,0.661858,0.400684,0.608651,0.6678,0.529813,0
4182,0.523122,0.569103,0.270893,0.592029,0.581699,0.596497,0.362622,0.460374,0.670484,0
4183,0.432087,0.538462,0.454298,0.624235,0.543558,0.391445,0.68777,0.558832,0.380822,1
4184,0.48954,0.526289,0.229728,0.415796,0.669629,0.504932,0.609228,0.516801,0.596121,0
4185,0.458517,0.361454,0.296777,0.709737,0.713775,0.307174,0.505997,0.6388,0.721945,0
4186,0.514494,0.522535,0.427761,0.66971,0.581699,0.564037,0.416,0.590624,0.523051,1
4187,0.085116,0.476916,0.272286,0.691748,0.836271,0.237409,0.392539,0.481227,0.546881,0
4188,0.531629,0.663297,0.213341,0.537054,0.604709,0.611606,0.433903,0.471197,0.664811,0
4189,0.511203,0.621544,0.276768,0.625926,0.750299,0.329948,0.546147,0.38748,0.407968,0
4190,0.643234,0.513302,0.268598,0.71099,0.693048,0.390882,0.244828,0.446662,0.470997,0
4191,0.622526,0.723162,0.366468,0.346899,0.490923,0.345688,0.564469,0.612644,0.496456,1
4192,0.557671,0.617555,0.304558,0.444876,0.438656,0.413956,0.585705,0.427245,0.476863,0
4193,0.486876,0.469345,0.41502,0.61065,0.671928,0.272496,0.472533,0.531865,0.53194,0
4194,0.526676,0.386319,0.440517,0.715276,0.699399,0.349397,0.447325,0.46053,0.47981,0
4195,0.373713,0.360211,0.218269,0.659863,0.748269,0.58884,0.414749,0.736826,0.529103,0
4196,0.427946,0.5744,0.575989,0.832968,0.348638,0.43514,0.437712,0.412873,0.369333,1
4197,0.464454,0.592824,0.47514,0.282185,0.432987,0.366713,0.545751,0.378776,0.51532,1
4198,0.473358,0.607628,0.298128,0.559045,0.691844,0.589475,0.497997,0.392294,0.710299,0
4199,0.486093,0.663089,0.268862,0.563863,0.595189,0.527897,0.295777,0.618245,0.438928,0
4200,0.570218,0.611013,0.297552,0.570838,0.668474,0.211264,0.327406,0.637278,0.376319,0
4201,0.583852,0.477163,0.49685,0.515239,0.581699,0.262982,0.535757,0.618271,0.591127,1
4202,0.609555,0.586205,0.386329,0.582524,0.61505,0.573389,0.37542,0.506808,0.294693,0
4203,0.461837,0.636051,0.248807,0.565735,0.561703,0.34983,0.383873,0.466827,0.731787,0
4204,0.486015,0.593672,0.395614,0.457412,0.461281,0.52123,0.44305,0.410574,0.685077,1
4205,0.47915,0.535983,0.428192,0.54028,0.555473,0.609462,0.479076,0.570094,0.423926,1
4206,0.502002,0.555407,0.274405,0.525594,0.677021,0.434742,0.326532,0.390832,0.527754,0
4207,0.582908,0.554499,0.280206,0.510354,0.462776,0.325079,0.382502,0.72698,0.689576,0
4208,0.588004,0.528668,0.376327,0.543472,0.593781,0.262872,0.403881,0.499437,0.398899,0
4209,0.53357,0.64362,0.37407,0.690112,0.563879,0.486503,0.442875,0.674925,0.439304,0
4210,0.534714,0.70241,0.416772,0.333208,0.709009,0.461268,0.518492,0.497064,0.565448,1
4211,0.559104,0.567392,0.324883,0.62805,0.63337,0.289227,0.617994,0.433841,0.605903,0
4212,0.489674,0.474007,0.373395,0.561511,0.540726,0.38634,0.469162,0.449851,0.449886,0
4213,0.513341,0.676946,0.250574,0.517201,0.602206,0.374626,0.490003,0.615566,0.381641,0
4214,0.534964,0.351149,0.188647,0.517424,0.618823,0.429167,0.642683,0.377239,0.325952,0
4215,0.441782,0.443312,0.466019,0.470117,0.61987,0.505985,0.3859,0.599511,0.581266,1
4216,0.49868,0.506466,0.185343,0.542639,0.585072,0.637064,0.341976,0.517747,0.299501,0
4217,0.461363,0.547565,0.491473,0.677833,0.486491,0.448017,0.416937,0.529237,0.534189,1
4218,0.46992,0.55141,0.362243,0.539128,0.709955,0.521752,0.214886,0.785551,0.515083,0
4219,0.558003,0.683572,0.560535,0.439097,0.626959,0.267115,0.382102,0.4035,0.547635,1
4220,0.511768,0.460505,0.228119,0.676566,0.692801,0.412067,0.373328,0.552992,0.263761,0
4221,0.538386,0.658204,0.505439,0.409063,0.445176,0.423709,0.521516,0.413653,0.563504,1
4222,0.607133,0.519259,0.351971,0.886735,0.570296,0.335288,0.564944,0.389826,0.67187,0
4223,0.578938,0.536303,0.309436,0.802414,0.593569,0.394074,0.315309,0.542378,0.722981,0
4224,0.476427,0.613946,0.436004,0.248894,0.460599,0.481451,0.342957,0.491578,0.442734,1
4225,0.319604,0.468186,0.337281,0.545798,0.575559,0.459631,0.489489,0.651906,0.69325,1
4226,0.542673,0.502285,0.340622,0.588288,0.707197,0.617871,0.365998,0.676988,0.438531,0
4227,0.492857,0.502373,0.5107,0.619677,0.559457,0.408322,0.540294,0.5552,0.31184,1
4228,0.514424,0.666831,0.472995,0.573102,0.67949,0.319936,0.420307,0.486887,0.448084,1
4229,0.505771,0.535963,0.282693,0.609626,0.721397,0.222596,0.426629,0.649812,0.502993,0
4230,0.446527,0.41652,0.291076,0.644111,0.581699,0.630343,0.300297,0.507712,0.561793,0
4231,0.505771,0.489947,0.202705,0.649902,0.605899,0.259429,0.402273,0.529755,0.572907,0
4232,0.4071,0.417564,0.227889,0.479645,0.622972,0.346588,0.459165,0.635081,0.449143,0
4233,0.396558,0.476204,0.420955,0.336499,0.63339,0.512594,0.619141,0.55305,0.434553,1
4234,0.413847,0.396316,0.527156,0.462519,0.538427,0.414154,0.337976,0.450542,0.721152,1
4235,0.675117,0.549882,0.481326,0.385516,0.56109,0.291259,0.476786,0.496261,0.501838,1
4236,0.505447,0.611856,0.327759,0.404146,0.448833,0.27717,0.34468,0.483847,0.410743,0
4237,0.446686,0.515229,0.265178,0.530078,0.610597,0.367078,0.493147,0.656737,0.287475,0
4238,0.54378,0.569155,0.246351,0.637199,0.675168,0.424243,0.445007,0.537932,0.462728,0
4239,0.459224,0.458098,0.316491,0.556502,0.539857,0.353881,0.536874,0.600084,0.368352,0
4240,0.461873,0.621729,0.42495,0.674252,0.605561,0.487883,0.709891,0.415434,0.394016,1
4241,0.660533,0.236229,0.330139,0.588797,0.550699,0.486387,0.414885,0.445151,0.409576,0
4242,0.4582,0.591333,0.248122,0.519637,0.545088,0.23818,0.329366,0.488219,0.508742,0
4243,0.468437,0.519492,0.626958,0.492447,0.531546,0.467746,0.451879,0.473822,0.445531,1
4244,0.473165,0.58851,0.594569,0.755232,0.441598,0.237171,0.554349,0.540063,0.50603,1
4245,0.393254,0.483528,0.008781,0.595924,0.589859,0.487824,0.350482,0.546316,0.419461,0
4246,0.550653,0.590689,0.558347,0.415799,0.462479,0.448712,0.48204,0.662091,0.485073,1
4247,0.535497,0.453627,0.19873,0.739639,0.652085,0.507179,0.422026,0.487751,0.315942,0
4248,0.419793,0.545014,0.313362,0.658979,0.595927,0.42161,0.580218,0.6686,0.388958,0
4249,0.496614,0.667132,0.454086,0.492932,0.517683,0.433856,0.716195,0.402349,0.336665,1
4250,0.509598,0.572091,0.282503,0.566588,0.758665,0.234792,0.423479,0.657533,0.290695,0
4251,0.590165,0.516223,0.194281,0.609608,0.566314,0.259539,0.396268,0.525319,0.346637,0
4252,0.587473,0.530117,0.661097,0.437385,0.501252,0.628556,0.501347,0.44537,0.507141,1
4253,0.476797,0.629068,0.23604,0.648503,0.8941,0.466306,0.507571,0.551847,0.465965,0
4254,0.358984,0.331719,0.364542,0.676819,0.758831,0.327676,0.280976,0.597063,0.385797,0
4255,0.51064,0.574052,0.347522,0.588454,0.402982,0.568038,0.347381,0.708188,0.587306,1
4256,0.374385,0.420403,0.234799,0.619596,0.581699,0.397852,0.472388,0.649926,0.434529,0
4257,0.510993,0.553546,0.430711,0.534959,0.532663,0.266146,0.602787,0.461108,0.634258,1
4258,0.510381,0.596937,0.403442,0.44531,0.581699,0.531729,0.475219,0.587802,0.52039,1
4259,0.498882,0.470832,0.224185,0.505022,0.643159,0.283915,0.553991,0.577931,0.424071,0
4260,0.432857,0.806199,0.28534,0.279831,0.710212,0.51237,0.482029,0.665826,0.539633,0
4261,0.414371,0.39738,0.411544,0.618205,0.543044,0.581786,0.357999,0.501039,0.547025,1
4262,0.538999,0.594197,0.323207,0.591678,0.430982,0.5764,0.423781,0.438572,0.442658,0
4263,0.300908,0.333847,0.280624,0.612659,0.614319,0.383193,0.459884,0.476408,0.414956,0
4264,0.530466,0.48822,0.349559,0.50735,0.505932,0.436864,0.345581,0.569913,0.33585,0
4265,0.44705,0.612044,0.364966,0.488124,0.628854,0.403325,0.50319,0.49164,0.497895,0
4266,0.622849,0.505714,0.314544,0.573198,0.557535,0.229802,0.546001,0.279685,0.410991,0
4267,0.481382,0.316002,0.364488,0.589334,0.77376,0.38152,0.400517,0.457625,0.368043,0
4268,0.590399,0.712628,0.229517,0.524221,0.533326,0.527584,0.6123,0.479896,0.319999,0
4269,0.484804,0.490331,0.157955,0.496363,0.689002,0.580309,0.500353,0.279934,0.397746,0
4270,0.57113,0.50271,0.202599,0.418797,0.663998,0.674671,0.442499,0.493175,0.259175,0
4271,0.50242,0.508987,0.220607,0.518736,0.581699,0.281839,0.433792,0.546139,0.632108,0
4272,0.499579,0.395347,0.50625,0.460951,0.503865,0.49459,0.336314,0.482641,0.381029,1
4273,0.42292,0.396621,0.441388,0.475855,0.568671,0.293947,0.320998,0.364092,0.285799,1
4274,0.469952,0.599211,0.428334,0.546921,0.824813,0.505144,0.601603,0.195913,0.528077,1
4275,0.445177,0.454616,0.325008,0.593241,0.718516,0.369579,0.376409,0.46264,0.517441,0
4276,0.478579,0.485078,0.664839,0.405077,0.572736,0.640631,0.631174,0.550433,0.460888,1
4277,0.493278,0.559274,0.255874,0.466626,0.531704,0.345395,0.536053,0.499047,0.446071,0
4278,0.426035,0.600326,0.251401,0.620623,0.581699,0.569331,0.601236,0.631692,0.223898,0
4279,0.361724,0.511506,0.372744,0.546826,0.816942,0.539976,0.574535,0.617849,0.620251,1
4280,0.464789,0.469173,0.606243,0.343774,0.581699,0.44851,0.533822,0.666052,0.653941,1
4281,0.397505,0.442555,0.262369,0.496964,0.542615,0.358804,0.263591,0.719009,0.391503,0
4282,0.511764,0.518721,0.330819,0.520052,0.66197,0.374959,0.463967,0.328383,0.592591,0
4283,0.514651,0.552027,0.411384,0.611589,0.563996,0.498974,0.334334,0.395572,0.667491,1
4284,0.475009,0.493495,0.125908,0.626989,0.727516,0.339844,0.623344,0.5271,0.801275,0
4285,0.505771,0.520867,0.765786,0.599398,0.484706,0.655365,0.461853,0.539117,0.454867,1
4286,0.493849,0.627827,0.638079,0.679776,0.282054,0.362669,0.423835,0.507832,0.510003,1
4287,0.441183,0.586289,0.310261,0.629613,0.581699,0.417694,0.368226,0.487095,0.721549,0
4288,0.477156,0.545502,0.277922,0.549282,0.570849,0.257632,0.380936,0.350626,0.382636,0
4289,0.4673,0.467177,0.222345,0.602597,0.634999,0.3781,0.614419,0.53301,0.258427,0
4290,0.439162,0.580465,0.378632,0.647498,0.581699,0.328377,0.505887,0.533133,0.449805,0
4291,0.354428,0.470896,0.235656,0.6254,0.635855,0.462102,0.542066,0.621012,0.587692,0
4292,0.474959,0.541975,0.37997,0.483726,0.520378,0.461977,0.491448,0.533909,0.407242,1
4293,0.520513,0.518182,0.432056,0.535787,0.450909,0.335981,0.388327,0.52521,0.493131,1
4294,0.543459,0.639207,0.287951,0.565244,0.516789,0.448987,0.546135,0.380829,0.404157,0
4295,0.592316,0.63939,0.622371,0.54309,0.476866,0.443252,0.606521,0.623144,0.729441,1
4296,0.538658,0.616037,0.107607,0.640404,0.60319,0.366657,0.358187,0.540745,0.446004,0
4297,0.439729,0.447945,0.256556,0.523691,0.456583,0.331272,0.590606,0.603566,0.486677,0
4298,0.50045,0.462328,0.265068,0.597156,0.538563,0.328679,0.734448,0.63208,0.293536,0
4299,0.555051,0.545984,0.496787,0.586107,0.524276,0.231078,0.583494,0.483139,0.409331,1
4300,0.551223,0.655151,0.206181,0.384147,0.550592,0.344636,0.431162,0.511621,0.391829,0
4301,0.521586,0.625029,0.306492,0.553245,0.654001,0.313365,0.564829,0.455891,0.390261,0
4302,0.448548,0.581575,0.533927,0.532423,0.661037,0.56387,0.4107,0.417834,0.675039,1
4303,0.400372,0.45573,0.368108,0.523109,0.581699,0.595418,0.453789,0.611665,0.32317,0
4304,0.372342,0.446614,0.180002,0.503223,0.573309,0.306959,0.483947,0.542601,0.202383,0
4305,0.39938,0.440466,0.628893,0.60778,0.693245,0.467772,0.480601,0.471929,0.396564,1
4306,0.5965,0.639323,0.345952,0.454272,0.393808,0.430021,0.53157,0.408867,0.411533,0
4307,0.493511,0.582196,0.421542,0.616396,0.73238,0.524051,0.473602,0.271745,0.57327,1
4308,0.594167,0.760269,0.344403,0.517192,0.604052,0.615096,0.455491,0.588908,0.595425,1
4309,0.539682,0.626558,0.534633,0.51236,0.58017,0.306066,0.519609,0.555164,0.58677,1
4310,0.534275,0.623392,0.287469,0.448949,0.602462,0.286827,0.49773,0.48116,0.379613,0
4311,0.443458,0.407396,0.333767,0.506585,0.581699,0.506858,0.391609,0.644802,0.321559,0
4312,0.516758,0.661543,0.219671,0.415549,0.429241,0.362717,0.453316,0.444186,0.4055,0
4313,0.629501,0.652333,0.199708,0.665141,0.694115,0.604051,0.298499,0.574797,0.275909,0
4314,0.478407,0.479947,0.589451,0.522867,0.579932,0.331597,0.413576,0.542396,0.539622,1
4315,0.42312,0.629765,0.597535,0.681801,0.79896,0.381169,0.457217,0.663129,0.622838,1
4316,0.610411,0.413269,0.537752,0.609361,0.50246,0.258853,0.509933,0.431572,0.48477,1
4317,0.511265,0.499975,0.44412,0.496327,0.636961,0.41483,0.423113,0.658743,0.473182,1
4318,0.555757,0.578979,0.438882,0.458643,0.462141,0.582231,0.348242,0.450617,0.474091,1
4319,0.50698,0.596295,0.297251,0.480659,0.574062,0.368058,0.361141,0.550654,0.428031,0
4320,0.470123,0.551869,0.420327,0.678509,0.560797,0.589688,0.593501,0.477441,0.678888,1
4321,0.530302,0.609997,0.621137,0.52034,0.56559,0.170812,0.413152,0.566032,0.57667,1
4322,0.353538,0.464027,0.49318,0.47813,0.666691,0.419487,0.568344,0.558168,0.456593,1
4323,0.577115,0.517954,0.244117,0.371179,0.55746,0.393587,0.670648,0.597809,0.209489,0
4324,0.508456,0.423777,0.228204,0.551955,0.652156,0.527255,0.312069,0.697206,0.491261,0
4325,0.504136,0.352157,0.475791,0.504333,0.602844,0.428001,0.263584,0.651073,0.441436,1
4326,0.54239,0.58849,0.380612,0.426802,0.506368,0.493389,0.23348,0.32159,0.336515,0
4327,0.540713,0.485219,0.23282,0.505425,0.514202,0.240611,0.555486,0.542268,0.613797,0
4328,0.379491,0.530686,0.240215,0.711187,0.75344,0.469311,0.322199,0.455375,0.581313,0
4329,0.40349,0.542134,0.402313,0.373964,0.717011,0.241606,0.444021,0.422073,0.451423,0
4330,0.504943,0.507395,0.325379,0.436529,0.656379,0.56999,0.436654,0.510995,0.607857,0
4331,0.383246,0.41668,0.319191,0.622822,0.76628,0.339946,0.510656,0.539865,0.720633,0
4332,0.607252,0.526189,0.497853,0.353433,0.581699,0.199594,0.440811,0.566391,0.591247,1
4333,0.502481,0.547937,0.299189,0.430882,0.431867,0.397156,0.409136,0.552139,0.527921,0
4334,0.498469,0.683334,0.366366,0.522496,0.604578,0.334074,0.562853,0.391156,0.441018,0
4335,0.399632,0.477825,0.366646,0.478917,0.574026,0.443723,0.576112,0.720363,0.405491,0
4336,0.590869,0.592307,0.323923,0.526052,0.360576,0.533149,0.437576,0.601291,0.471624,0
4337,0.487049,0.627105,0.243397,0.539822,0.559456,0.439665,0.415086,0.471322,0.533275,0
4338,0.517066,0.45743,0.219652,0.678015,0.843448,0.591422,0.417947,0.788261,0.361127,0
4339,0.503056,0.629886,0.36312,0.621666,0.581699,0.487987,0.324815,0.611566,0.535958,0
4340,0.495247,0.581199,0.248383,0.552537,0.600708,0.422718,0.624635,0.525156,0.635004,0
4341,0.51987,0.640693,0.220032,0.374804,0.459855,0.364189,0.600464,0.472861,0.576722,0
4342,0.598624,0.562094,0.499226,0.507418,0.510946,0.21783,0.249367,0.513092,0.421288,1
4343,0.500644,0.553184,0.511188,0.586655,0.482029,0.424344,0.670175,0.532789,0.356447,1
4344,0.582086,0.527088,0.459885,0.452758,0.49372,0.610485,0.552321,0.599523,0.585454,1
4345,0.583403,0.698766,0.355434,0.602508,0.6119,0.348298,0.278951,0.539343,0.639338,0
4346,0.438237,0.56782,0.510487,0.355745,0.531585,0.464882,0.543116,0.527968,0.483433,1
4347,0.505771,0.437164,0.425058,0.55663,0.83214,0.337957,0.471383,0.567624,0.670174,1
4348,0.652051,0.639571,0.161949,0.529848,0.556334,0.683337,0.398671,0.635049,0.397338,0
4349,0.50775,0.520908,0.67147,0.473084,0.539163,0.299119,0.40477,0.544778,0.450283,1
4350,0.547277,0.559461,0.121666,0.478649,0.740606,0.473943,0.674689,0.487304,0.42624,0
4351,0.587472,0.608,0.210063,0.418411,0.452295,0.357672,0.621756,0.526711,0.543678,0
4352,0.443968,0.514478,0.423965,0.659193,0.575689,0.452708,0.479518,0.530297,0.308404,0
4353,0.438771,0.635748,0.261882,0.54166,0.594268,0.362308,0.222176,0.675777,0.574676,0
4354,0.423138,0.548345,0.310527,0.685312,0.649686,0.481004,0.302445,0.493091,0.474655,0
4355,0.488121,0.478925,0.225102,0.556497,0.640752,0.520363,0.45865,0.6118,0.531671,0
4356,0.533205,0.54819,0.573644,0.546456,0.545867,0.386261,0.618561,0.52621,0.528461,1
4357,0.492689,0.526874,0.363693,0.532883,0.568969,0.597872,0.389675,0.450888,0.693684,1
4358,0.422466,0.421076,0.645163,0.522139,0.579165,0.402582,0.406682,0.650862,0.495842,1
4359,0.600107,0.654475,0.482496,0.450949,0.411443,0.552583,0.518631,0.498112,0.546935,1
4360,0.58711,0.514866,0.388876,0.56929,0.607241,0.455858,0.424821,0.825708,0.402386,0
4361,0.656768,0.673715,0.633682,0.541394,0.625467,0.431492,0.538154,0.492847,0.369499,1
4362,0.502921,0.616464,0.196769,0.666073,0.660569,0.383625,0.529413,0.719384,0.451547,0
4363,0.36558,0.735858,0.214678,0.529743,0.652957,0.36555,0.467312,0.548072,0.361075,0
4364,0.477261,0.484061,0.224693,0.645254,0.663097,0.27359,0.507175,0.556363,0.499734,0
4365,0.594009,0.591413,0.523663,0.52557,0.587825,0.498041,0.453259,0.580048,0.557992,1
4366,0.506885,0.505298,0.483652,0.471901,0.584512,0.296777,0.601872,0.299891,0.47881,1
4367,0.554713,0.523309,0.437157,0.517088,0.532094,0.638482,0.474197,0.532884,0.470647,1
4368,0.605017,0.645687,0.236846,0.557917,0.515031,0.286056,0.448958,0.457103,0.619995,0
4369,0.439889,0.57607,0.509045,0.511298,0.569933,0.597721,0.33574,0.588666,0.354641,1
4370,0.508847,0.687928,0.25338,0.607246,0.544065,0.533446,0.473052,0.674555,0.340027,0
4371,0.475544,0.536494,0.271044,0.514122,0.582476,0.499852,0.552591,0.487841,0.472211,0
4372,0.551503,0.683108,0.380554,0.420407,0.432687,0.516638,0.452355,0.444848,0.332304,1
4373,0.56025,0.462872,0.345368,0.452064,0.581699,0.435864,0.382211,0.507743,0.223641,0
4374,0.492895,0.497813,0.661231,0.336029,0.434656,0.253236,0.53755,0.58025,0.308576,1
4375,0.469657,0.440336,0.195127,0.572397,0.696601,0.361029,0.528279,0.529161,0.333948,0
4376,0.542652,0.378901,0.242177,0.57798,0.720549,0.447603,0.513196,0.765806,0.56077,0
4377,0.442763,0.515064,0.419268,0.431363,0.553416,0.522579,0.502705,0.610032,0.561527,1
4378,0.52583,0.532959,0.444741,0.571086,0.386271,0.545168,0.390412,0.590949,0.552328,1
4379,0.631109,0.307659,0.281182,0.553764,0.534245,0.406885,0.580012,0.617755,0.624722,0
4380,0.390785,0.524726,0.306793,0.552873,0.796213,0.356337,0.56973,0.478659,0.389882,0
4381,0.631822,0.549219,0.291257,0.580154,0.581699,0.705747,0.318684,0.471619,0.53519,0
4382,0.563524,0.531995,0.268272,0.455002,0.64315,0.349866,0.221828,0.378294,0.302303,0
4383,0.49985,0.722127,0.434773,0.52485,0.587586,0.347408,0.422457,0.579995,0.33103,0
4384,0.525317,0.405501,0.486315,0.517467,0.409908,0.27132,0.471016,0.656869,0.443957,1
4385,0.475017,0.53954,0.298427,0.486708,0.650953,0.324218,0.434855,0.494251,0.397062,0
4386,0.393879,0.570458,0.340602,0.673583,0.676502,0.473416,0.479617,0.497584,0.436659,0
4387,0.512541,0.584719,0.277048,0.523974,0.727355,0.286261,0.519176,0.545534,0.545054,0
4388,0.636365,0.781845,0.396663,0.548529,0.557763,0.535947,0.378889,0.463731,0.761309,1
4389,0.51176,0.518567,0.276781,0.475566,0.57805,0.324224,0.426051,0.555769,0.498719,0
4390,0.477827,0.498086,0.444702,0.700762,0.644314,0.707837,0.388001,0.61013,0.574069,1
4391,0.636646,0.641225,0.247269,0.444103,0.564617,0.620088,0.610356,0.480723,0.60261,0
4392,0.569829,0.67685,0.157373,0.508914,0.695217,0.611159,0.403393,0.522725,0.509088,0
4393,0.388408,0.492997,0.157206,0.785109,0.581699,0.381265,0.396488,0.503769,0.659873,0
4394,0.45015,0.613919,0.268396,0.481848,0.568449,0.375764,0.732568,0.664863,0.505306,0
4395,0.455864,0.631233,0.28379,0.689861,0.500297,0.540043,0.350566,0.539474,0.378437,0
4396,0.527392,0.613717,0.206069,0.446326,0.563907,0.388538,0.562818,0.544736,0.463101,0
4397,0.511108,0.559854,0.395734,0.418904,0.583438,0.235299,0.307117,0.604189,0.636653,1
4398,0.510451,0.51299,0.25958,0.450569,0.542966,0.447588,0.376403,0.348983,0.500494,0
4399,0.405987,0.6236,0.100912,0.469149,0.670591,0.479336,0.49428,0.715918,0.464521,0
4400,0.5032,0.714808,0.413006,0.462091,0.577385,0.387745,0.537987,0.561788,0.338282,0
4401,0.524192,0.481059,0.139083,0.48037,0.659358,0.354522,0.299951,0.671761,0.405921,0
4402,0.528326,0.673987,0.270705,0.455794,0.557071,0.574134,0.580618,0.373255,0.336575,0
4403,0.467663,0.483449,0.289816,0.478399,0.6918,0.271307,0.274931,0.450451,0.366366,0
4404,0.478534,0.429416,0.498874,0.578797,0.559924,0.380663,0.218073,0.530425,0.465015,1
4405,0.488784,0.609869,0.161982,0.493285,0.692934,0.399128,0.385869,0.618866,0.377166,0
4406,0.467547,0.360632,0.157857,0.513557,0.656065,0.590049,0.522738,0.361441,0.429349,0
4407,0.52189,0.701256,0.356197,0.366064,0.658914,0.285804,0.508529,0.580476,0.491579,0
4408,0.554618,0.769087,0.833204,0.583403,0.507323,0.417049,0.491321,0.570407,0.394656,1
4409,0.496882,0.659476,0.246747,0.480036,0.581699,0.371461,0.594027,0.448432,0.481262,0
4410,0.483091,0.532044,0.562195,0.511072,0.579027,0.21615,0.570628,0.442105,0.323825,1
4411,0.315562,0.567127,0.557855,0.50088,0.662641,0.548021,0.399526,0.504642,0.547083,1
4412,0.605767,0.594765,0.256124,0.573999,0.512082,0.392313,0.450045,0.470365,0.489881,0
4413,0.5073,0.482221,0.441072,0.743584,0.576582,0.288251,0.436318,0.525964,0.600703,1
4414,0.553429,0.507446,0.268667,0.59241,0.659017,0.40926,0.440517,0.490937,0.433315,0
4415,0.441578,0.638529,0.323185,0.517708,0.629561,0.260064,0.449044,0.649722,0.349642,0
4416,0.562388,0.538435,0.212385,0.669893,0.585532,0.366545,0.269756,0.560258,0.515092,0
4417,0.590253,0.594945,0.569551,0.572636,0.627389,0.356129,0.524283,0.56435,0.626515,1
4418,0.502041,0.66344,0.475467,0.435411,0.524962,0.446362,0.154266,0.596303,0.550276,1
4419,0.512867,0.613421,0.408445,0.552779,0.613982,0.660165,0.539578,0.803241,0.418061,1
4420,0.692292,0.300016,0.630698,0.558339,0.731111,0.755575,0.305918,0.392654,0.564849,1
4421,0.491361,0.515675,0.373672,0.588513,0.539418,0.296007,0.399191,0.467044,0.511206,0
4422,0.415107,0.599561,0.356433,0.665417,0.5146,0.264626,0.36417,0.490901,0.508355,0
4423,0.573643,0.513261,0.145035,0.665517,0.6163,0.348695,0.425367,0.499059,0.492189,0
4424,0.515871,0.511009,0.327845,0.518051,0.558558,0.218355,0.399132,0.467774,0.575248,0
4425,0.464041,0.354247,0.154436,0.742976,0.762569,0.376696,0.368034,0.216598,0.471434,0
4426,0.563823,0.404035,0.172294,0.672265,0.536544,0.43073,0.632917,0.541155,0.451369,0
4427,0.403509,0.605701,0.007971,0.571084,0.66387,0.740524,0.486971,0.49051,0.416776,0
4428,0.408958,0.846209,0.890478,0.489928,0.581699,0.395893,0.440147,0.693161,0.633023,1
4429,0.533656,0.644731,0.105744,0.47735,0.670336,0.456037,0.378649,0.567081,0.434203,0
4430,0.578462,0.471875,0.471027,0.579134,0.582395,0.385165,0.526985,0.522393,0.386043,1
4431,0.549086,0.365437,0.549436,0.72065,0.53788,0.546993,0.405412,0.570874,0.365142,1
4432,0.475531,0.54402,0.102767,0.458069,0.62307,0.491751,0.619437,0.671018,0.47177,0
4433,0.403423,0.482464,0.194408,0.522282,0.742462,0.376478,0.375643,0.459886,0.573935,0
4434,0.555819,0.513849,0.349837,0.531149,0.576888,0.369706,0.443086,0.562636,0.256863,0
4435,0.481986,0.58064,0.295521,0.447671,0.505393,0.515054,0.462286,0.505532,0.529922,0
4436,0.575973,0.499526,0.317153,0.566409,0.556852,0.347104,0.596567,0.385953,0.438049,0
4437,0.409745,0.377114,0.675329,0.616657,0.628992,0.414617,0.330631,0.533422,0.303379,1
4438,0.577524,0.338427,0.386518,0.652633,0.548944,0.502304,0.488286,0.502783,0.279206,0
4439,0.430009,0.68408,0.01449,0.464462,0.702841,0.503769,0.36241,0.580428,0.429994,0
4440,0.618015,0.60107,0.871644,0.507925,0.525493,0.376956,0.421214,0.813938,0.53585,1
4441,0.596171,0.443408,0.395332,0.569515,0.572992,0.390642,0.640501,0.630685,0.386348,0
4442,0.614706,0.463073,0.429123,0.513045,0.496213,0.631748,0.445714,0.382506,0.533264,1
4443,0.572859,0.43882,0.242874,0.582679,0.543672,0.410584,0.638758,0.848995,0.544302,0
4444,0.54863,0.373358,0.467792,0.662647,0.618743,0.602994,0.360983,0.64041,0.391655,1
4445,0.424386,0.552149,0.193956,0.5544,0.646059,0.52155,0.399367,0.562331,0.33164,0
4446,0.448875,0.525661,0.185166,0.510671,0.733997,0.389843,0.479114,0.686722,0.374808,0
4447,0.493387,0.506971,0.394941,0.663922,0.511248,0.515116,0.800035,0.551517,0.43915,1
4448,0.63724,0.576971,0.265574,0.488282,0.567395,0.544046,0.451206,0.547182,0.365029,0
4449,0.50065,0.481856,0.227334,0.591371,0.592924,0.24189,0.59787,0.510769,0.499589,0
4450,0.51416,0.528127,0.52522,0.539703,0.475111,0.698789,0.5348,0.491667,0.548208,1
4451,0.430162,0.504953,0.723197,0.37168,0.767488,0.300938,0.487582,0.533605,0.673275,1
4452,0.502038,0.524357,0.562818,0.482599,0.632211,0.623949,0.382425,0.544394,0.577872,1
4453,0.499344,0.497932,0.506244,0.626203,0.642655,0.357517,0.590995,0.651212,0.33654,1
4454,0.544661,0.427092,0.520838,0.556166,0.424248,0.280756,0.476176,0.490331,0.646278,1
4455,0.53447,0.554878,0.558833,0.486469,0.294634,0.433926,0.39469,0.730113,0.411598,1
4456,0.476039,0.442556,0.339544,0.575226,0.619001,0.248878,0.368643,0.486043,0.423149,0
4457,0.671122,0.357465,0.26647,0.594918,0.516433,0.547849,0.396218,0.536219,0.535447,0
4458,0.589276,0.2806,0.122446,0.728882,0.508209,0.577583,0.495564,0.598612,0.509217,0
4459,0.524379,0.593099,0.164978,0.46767,0.656597,0.407122,0.433214,0.575486,0.329395,0
4460,0.486338,0.551212,0.27119,0.631526,0.581699,0.633377,0.539504,0.368182,0.614962,0
4461,0.506872,0.543947,0.53251,0.466086,0.527199,0.57412,0.48547,0.476701,0.525956,1
4462,0.50844,0.3899,0.232245,0.581904,0.534962,0.32788,0.436246,0.814553,0.534882,0
4463,0.452068,0.690649,0.268327,0.478352,0.615879,0.444763,0.347897,0.542223,0.30166,0
4464,0.510405,0.420984,0.401141,0.366749,0.605884,0.523538,0.482056,0.598754,0.123814,0
4465,0.470836,0.395039,0.239391,0.741436,0.74374,0.4846,0.597465,0.531708,0.445585,0
4466,0.638715,0.454127,0.459931,0.491938,0.540377,0.586043,0.500932,0.405116,0.438761,1
4467,0.508787,0.50251,0.569549,0.560169,0.570827,0.55173,0.239259,0.269655,0.420362,1
4468,0.691363,0.503178,0.802099,0.675471,0.580024,0.321778,0.589048,0.627554,0.462597,1
4469,0.502706,0.367778,0.355078,0.597844,0.63625,0.608048,0.54433,0.68072,0.513882,1
4470,0.409964,0.466226,0.371181,0.545561,0.614215,0.509432,0.404664,0.640679,0.543329,1
4471,0.505328,0.541325,0.137758,0.541347,0.598938,0.399254,0.350914,0.538939,0.374728,0
4472,0.44501,0.61214,0.245067,0.462055,0.53695,0.623047,0.649683,0.474457,0.452613,0
4473,0.520121,0.474933,0.502432,0.440889,0.581699,0.498386,0.508421,0.514453,0.719368,1
4474,0.561495,0.434146,0.394173,0.651178,0.472219,0.504456,0.510063,0.676093,0.458209,1
4475,0.443459,0.583297,0.062735,0.671164,0.702471,0.300234,0.503844,0.565968,0.727157,0
4476,0.548105,0.542304,0.520137,0.570432,0.492321,0.592815,0.462128,0.33358,0.506499,1
4477,0.505771,0.579596,0.438894,0.497429,0.608877,0.398054,0.435681,0.527945,0.526919,1
4478,0.538271,0.483136,0.32302,0.555436,0.536166,0.59437,0.481309,0.398853,0.367958,0
4479,0.530857,0.586224,0.633574,0.530584,0.613872,0.377173,0.258133,0.492614,0.734805,1
4480,0.560965,0.454472,0.663609,0.310005,0.502003,0.379295,0.449851,0.53148,0.498408,1
4481,0.467318,0.428075,0.3593,0.680846,0.572106,0.436958,0.468617,0.499257,0.525742,0
4482,0.526965,0.330516,0.388631,0.612862,0.595607,0.390133,0.375993,0.595941,0.488711,0
4483,0.491313,0.568703,0.121362,0.44184,0.658006,0.437185,0.656162,0.502711,0.380066,0
4484,0.469154,0.674863,0.249923,0.583581,0.610399,0.358136,0.541901,0.517995,0.648212,0
4485,0.660831,0.36525,0.643463,0.643325,0.548275,0.447739,0.285284,0.508844,0.596862,1
4486,0.437612,0.480251,0.370351,0.515099,0.586125,0.464426,0.500503,0.347406,0.625878,1
4487,0.37953,0.550391,0.252231,0.540112,0.515417,0.411215,0.470235,0.589343,0.4325,0
4488,0.535116,0.545871,0.573828,0.422182,0.506068,0.455684,0.388615,0.465768,0.503773,1
4489,0.48725,0.586686,0.44745,0.479381,0.565616,0.504447,0.529049,0.638008,0.445913,1
4490,0.431943,0.500491,0.194196,0.637921,0.616343,0.276466,0.41728,0.342099,0.096805,0
4491,0.611519,0.704239,0.457035,0.453845,0.5749,0.651019,0.288809,0.446412,0.252538,1
4492,0.42476,0.781067,0.322063,0.347518,0.644549,0.384589,0.457326,0.413888,0.613373,0
4493,0.375061,0.834696,0.712992,0.577506,0.535418,0.340342,0.545353,0.523854,0.592204,1
4494,0.519524,0.62008,0.23803,0.550657,0.643469,0.266917,0.316472,0.33654,0.326112,0
4495,0.540876,0.338644,0.461461,0.588084,0.532,0.557315,0.481798,0.626085,0.556274,1
4496,0.417596,0.820668,0.042652,0.325718,0.710972,0.405052,0.187283,0.461161,0.633355,0
4497,0.472332,0.547021,0.520119,0.562012,0.544985,0.216188,0.353893,0.427898,0.536882,1
4498,0.550258,0.278757,0.261625,0.592324,0.598822,0.628448,0.624784,0.603551,0.430445,0
4499,0.396482,0.705755,0.539944,0.375748,0.581699,0.537939,0.342609,0.576021,0.569403,1
4500,0.440998,0.701148,0.392618,0.424041,0.581699,0.310371,0.261198,0.503784,0.301752,0
4501,0.5029,0.617062,0.291753,0.476612,0.581699,0.34,0.470756,0.50562,0.44013,0
4502,0.547127,0.590279,0.505188,0.589086,0.581699,0.620508,0.364819,0.665441,0.387578,1
4503,0.527916,0.466809,0.339958,0.63351,0.695685,0.373346,0.334443,0.524654,0.3284,0
4504,0.416085,0.619955,0.852536,0.571564,0.581699,0.463447,0.511477,0.705,0.461873,1
4505,0.538345,0.530599,0.520141,0.570224,0.50273,0.668302,0.534034,0.337756,0.517218,1
4506,0.527671,0.552642,0.357662,0.696319,0.59555,0.342006,0.418642,0.617341,0.538345,0
4507,0.491514,0.512007,0.171284,0.506837,0.59403,0.360564,0.479979,0.738883,0.497131,0
4508,0.600742,0.363958,0.38144,0.706031,0.461341,0.246859,0.535642,0.750233,0.546411,0
4509,0.505771,0.50149,0.457949,0.562868,0.6786,0.417901,0.621985,0.807693,0.491125,1
4510,0.512915,0.548288,0.220254,0.528541,0.544951,0.424661,0.375648,0.513966,0.284835,0
4511,0.746527,0.351451,0.534397,0.494249,0.531622,0.221077,0.566479,0.543582,0.578539,1
4512,0.435447,0.5608,0.31361,0.486276,0.615127,0.401113,0.240716,0.471399,0.486284,0
4513,0.416125,0.590972,0.180333,0.606074,0.602438,0.278336,0.604847,0.415402,0.479962,0
4514,0.39444,0.605192,0.776165,0.482836,0.581699,0.683644,0.494283,0.411205,0.437987,1
4515,0.509918,0.573241,0.367048,0.449218,0.533451,0.376812,0.572582,0.628144,0.528668,1
4516,0.534958,0.443963,0.438989,0.553371,0.542063,0.472912,0.509466,0.481086,0.553461,1
4517,0.662531,0.562346,0.255254,0.53077,0.501779,0.359865,0.339549,0.491892,0.495698,0
4518,0.442439,0.563229,0.37992,0.576747,0.570924,0.381339,0.62722,0.516877,0.508573,0
4519,0.407348,0.653125,0.143984,0.607114,0.531559,0.306072,0.335373,0.441698,0.455948,0
4520,0.388404,0.699221,0.416966,0.400354,0.701197,0.512682,0.448257,0.44046,0.457773,1
4521,0.328458,0.709471,0.13922,0.422089,0.586993,0.36573,0.548794,0.415198,0.638751,0
4522,0.423712,0.573755,0.285992,0.486324,0.715832,0.519059,0.516979,0.537384,0.283003,0
4523,0.462821,0.454667,0.400445,0.360796,0.655309,0.653203,0.510061,0.366576,0.230065,1
4524,0.759099,0.546767,0.469807,0.525011,0.504035,0.348881,0.601097,0.44088,0.504576,1
4525,0.56782,0.541114,0.513279,0.590098,0.578395,0.284918,0.471924,0.467677,0.571865,1
4526,0.542066,0.617315,0.300421,0.52325,0.591745,0.282561,0.311538,0.649965,0.739333,0
4527,0.736056,0.606155,0.480002,0.543533,0.482933,0.314797,0.465996,0.598351,0.559222,1
4528,0.437688,0.363401,0.683577,0.583868,0.669298,0.590365,0.540743,0.510025,0.390796,1
4529,0.474861,0.651173,0.180048,0.561859,0.649587,0.329415,0.456207,0.538239,0.449817,0
4530,0.489799,0.612889,0.214235,0.409471,0.581699,0.302931,0.579073,0.466089,0.562148,0
4531,0.523744,0.522829,0.364735,0.681411,0.475772,0.318955,0.320691,0.522824,0.649706,0
4532,0.509046,0.386224,0.281275,0.493804,0.606495,0.402075,0.434641,0.518322,0.653433,0
4533,0.389325,0.483472,0.078808,0.568657,0.601366,0.251437,0.340625,0.283254,0.499925,0
4534,0.226922,0.392314,0.635791,0.446703,0.50806,0.478346,0.423137,0.497479,0.392583,1
4535,0.485507,0.615847,0.306815,0.422162,0.588422,0.236212,0.580758,0.606678,0.524772,0
4536,0.500385,0.654285,0.155279,0.517461,0.446798,0.330089,0.372469,0.525741,0.649282,0
4537,0.601821,0.594009,0.26613,0.46234,0.551483,0.500583,0.38378,0.735298,0.246899,0
4538,0.668341,0.404993,0.143007,0.642642,0.587434,0.415367,0.29245,0.653757,0.452216,0
4539,0.323467,0.561626,0.402843,0.424751,0.633189,0.329224,0.418357,0.542121,0.624033,1
4540,0.541292,0.683047,0.4618,0.357047,0.4499,0.484096,0.45811,0.371125,0.595246,1
4541,0.490067,0.630016,0.402444,0.458112,0.5673,0.541291,0.374051,0.440126,0.452678,1
4542,0.36951,0.592128,0.332095,0.239003,0.603008,0.40611,0.562025,0.552808,0.302321,0
4543,0.565724,0.333753,0.449933,0.531469,0.539791,0.452544,0.505089,0.48839,0.368036,1
4544,0.549273,0.495357,0.23505,0.723576,0.733317,0.486389,0.462007,0.370665,0.646715,0
4545,0.543658,0.608102,0.256446,0.609761,0.513582,0.372103,0.372601,0.482003,0.429188,0
4546,0.53592,0.582027,0.276645,0.585517,0.600693,0.318573,0.557718,0.287304,0.627694,0
4547,0.775343,0.275206,0.605899,0.582207,0.369374,0.403579,0.441359,0.404654,0.502316,1
4548,0.505211,0.502147,0.424583,0.575614,0.583142,0.359351,0.499029,0.500903,0.645877,1
4549,0.38579,0.50717,0.776097,0.576241,0.590343,0.637785,0.447694,0.485385,0.526839,1
4550,0.523568,0.482422,0.280139,0.659158,0.581699,0.37029,0.478738,0.456267,0.291492,0
4551,0.477379,0.482109,0.538905,0.47459,0.653457,0.376034,0.226446,0.54286,0.447488,1
4552,0.400915,0.524845,0.191644,0.572928,0.60103,0.369271,0.379221,0.579961,0.488199,0
4553,0.573184,0.569208,0.280538,0.559363,0.463879,0.256872,0.469825,0.672038,0.227811,0