@relation water_potability-weka.filters.unsupervised.attribute.ReplaceMissingValues-weka.filters.unsupervised.attribute.Normalize-S1.0-T0.0-weka.filters.unsupervised.attribute.NumericToNominal-R10

@attribute ph numeric
@attribute Hardness numeric
@attribute Solids numeric
@attribute Chloramines numeric
@attribute Sulfate numeric
@attribute Conductivity numeric
@attribute Organic_carbon numeric
@attribute Trihalomethanes numeric
@attribute Turbidity numeric
@attribute Potability {0,1}

@data
0.505771,0.571139,0.336096,0.543891,0.680385,0.669439,0.313402,0.699753,0.286091,0
0.265434,0.2974,0.300611,0.491839,0.581699,0.719411,0.497319,0.450999,0.576793,0
0.578509,0.641311,0.321619,0.698543,0.581699,0.414652,0.562017,0.532866,0.303637,0
0.594055,0.605536,0.356244,0.603314,0.647347,0.31788,0.622089,0.808065,0.601015,0
0.649445,0.484851,0.289922,0.4849,0.514545,0.379337,0.358555,0.253606,0.496327,0
0.398863,0.51101,0.466746,0.563043,0.561537,0.173092,0.237538,0.43955,0.209814,0
0.730276,0.727768,0.466763,0.56058,0.751819,0.178659,0.44405,0.680385,0.231233,0
0.616846,0.565593,0.219208,0.329629,0.495155,0.512581,0.389418,0.503483,0.558031,0
0.505771,0.259553,0.229281,0.58334,0.39669,0.363537,0.402531,0.431527,0.405562,0
0.798592,0.652175,0.413152,0.68299,0.7813,0.668699,0.602598,0.577945,0.552195,0
0.52576,0.428336,0.527559,0.563499,0.561384,0.426503,0.512905,0.632815,0.418282,0
0.569609,0.621205,0.302871,0.60731,0.581699,0.319335,0.472251,0.614528,0.484348,0
0.508559,0.396359,0.302266,0.254719,0.435599,0.290686,0.526036,0.638987,0.377341,0
0.505771,0.372673,0.443475,0.507728,0.484094,0.346726,0.657885,0.614723,0.560404,0
0.535445,0.572788,0.460824,0.369515,0.581699,0.460186,0.422541,0.564344,0.629114,0
0.453377,0.505277,0.668967,0.726231,0.668941,0.586263,0.357846,0.603054,0.55329,0
0.503699,0.593479,0.503391,0.762645,0.581699,0.233725,0.697204,0.453616,0.532885,0
0.655826,0.82114,0.389457,0.512954,0.765134,0.518469,0.428634,0.573732,0.577361,0
0.641105,0.841247,0.314245,0.458107,0.581699,0.437101,0.409531,0.511782,0.186441,0
0.526504,0.605983,0.415546,0.319426,0.587319,0.504374,0.394987,0.503475,0.209926,0
0.505771,0.652914,0.360958,0.781363,0.581699,0.652847,0.541444,0.362194,0.507359,0
0.475729,0.438358,0.502796,0.431058,0.516804,0.598378,0.600929,0.619042,0.434808,0
0.505771,0.611356,0.275609,0.411355,0.562292,0.445516,0.459351,0.479608,0.758036,0
0.278748,0.542168,0.342273,0.520103,0.581699,0.459895,0.55207,0.725639,0.582061,0
0.385736,0.338447,0.278225,0.759675,0.566309,0.509549,0.346988,0.45589,0.638076,0
0.465315,0.548929,0.343114,0.651189,0.552782,0.405356,0.48659,0.641802,0.709186,0
0.246076,0.582151,0.543521,0.659894,0.724389,0.455186,0.444671,0.239706,0.516997,0
0.505771,0.356689,0.211866,0.591346,0.497121,0.205482,0.40343,0.395895,0.483054,0
0.505771,0.794325,0.427576,0.575191,0.756722,0.320003,0.31222,0.424059,0.480538,0
0.505771,0.365339,0.244186,0.680613,0.505671,0.668558,0.550523,0.421364,0.867496,0
0.512961,0.588314,0.244233,0.441697,0.594654,0.280887,0.219257,0.574386,0.688005,0
0.701821,0.519872,0.317815,0.501412,0.581699,0.47451,0.563182,0.375979,0.266113,0
0.745235,0.25521,0.361309,0.611312,0.507648,0.404826,0.409606,0.527295,0.68204,0
0.529582,0.680515,0.529255,0.508333,0.733389,0.403071,0.30823,0.354946,0.323431,0
0.505771,0.670489,0.237517,0.401011,0.581699,0.354105,0.381875,0.692369,0.676719,0
0.365416,0.524211,0.316874,0.446866,0.553464,0.45512,0.335881,0.393473,0.46362,0
0.260116,0.495033,0.401127,0.405974,0.446153,0.481546,0.261842,0.591072,0.380857,0
0.40129,0.931488,0.278478,0.450026,0.581699,0.381192,0.385632,0.655928,0.273501,0
0.505771,0.348293,0.322156,0.433562,0.581699,0.429559,0.776624,0.424998,0.275584,0
0.661942,0.548374,0.400005,0.450772,0.565512,0.376654,0.546819,0.240507,0.543393,0
0.505771,0.676215,0.186893,0.332477,0.511431,0.293632,0.618348,0.340247,0.389488,0
0.380853,0.534807,0.268247,0.598186,0.533122,0.268662,0.305767,0.477314,0.564345,0
0.510412,0.693738,0.467266,0.505834,0.729981,0.263262,0.340734,0.530578,0.705727,0
0.708621,0.56362,0.158489,0.511174,0.591853,0.26529,0.832092,0.576785,0.612726,0
0.339889,0.493005,0.348856,0.342806,0.581699,0.389013,0.630967,0.53686,0.584761,0
0.407352,0.614521,0.579341,0.534822,0.581699,0.565095,0.53413,0.623048,0.508175,0
0.496705,0.588361,0.168361,0.321777,0.530086,0.3667,0.424725,0.702998,0.330064,0
0.763069,0.456827,0.253468,0.408515,0.506639,0.24888,0.302332,0.630647,0.48209,0
0.505771,0.299097,0.559793,0.467313,0.498636,0.505099,0.62833,0.581409,0.558818,0
0.625518,0.554094,0.348327,0.35719,0.536552,0.390366,0.443231,0.382866,0.411446,0
0.505771,0.438738,0.446118,0.52401,0.485243,0.353778,0.535711,0.608391,0.302147,0
0.557831,0.192336,0.191977,0.380455,0.335769,0.740981,0.28396,0.53014,0.188588,0
0.475178,0.353939,0.320999,0.360788,0.451813,0.63738,0.334943,0.575923,0.433369,0
0.653371,0.59589,0.190451,0.538458,0.598675,0.605438,0.615912,0.380465,0.443284,0
0.754339,0.487723,0.352389,0.519707,0.600489,0.481015,0.547235,0.271893,0.475456,0
0.53459,0.771369,0.497415,0.706625,0.581699,0.390283,0.526225,0.534496,0.629833,0
0.608629,0.692451,0.467254,0.620807,0.717691,0.524317,0.14622,0.311152,0.470903,0
0.357101,0.518169,0.394096,0.538408,0.556466,0.391437,0.231286,0.800647,0.569235,0
0.505771,0.400335,0.273251,0.624941,0.485879,0.31391,0.407044,0.575838,0.55878,0
0.505771,0.390377,0.332253,0.613332,0.581699,0.190077,0.552577,0.477715,0.499132,0
0.279006,0.67456,0.522506,0.519987,0.623126,0.153823,0.285599,0.511148,0.46377,0
0.456525,0.600619,0.338956,0.393234,0.564299,0.328498,0.442839,0.139359,0.467716,0
0.505771,0.660352,0.581365,0.66214,0.72705,0.200948,0.564256,0.532673,0.454831,0
0.620864,0.535785,0.399553,0.616822,0.581699,0.379222,0.390068,0.387003,0.572501,0
0.577554,0.291295,0.530864,0.483932,0.581699,0.410514,0.341749,0.629043,0.49512,0
0.443141,0.598039,0.352905,0.588806,0.581699,0.315855,0.487855,0.512208,0.711985,0
0.361293,0.6933,0.567314,0.675638,0.697194,0.853779,0.427325,0.614819,0.69137,0
0.505771,0.203244,0.444933,0.631335,0.581699,0.532458,0.350618,0.544628,0.599507,0
0.505771,0.594027,0.20539,0.324862,0.562342,0.265531,0.530465,0.398829,0.376203,0
0.518682,0.480456,0.404619,0.429361,0.625711,0.559052,0.578073,0.407709,0.41338,0
0.511462,0.492061,0.105447,0.27014,0.42212,0.431142,0.291173,0.724452,0.460369,0
0.407483,0.249798,0.540218,0.524345,0.477453,0.564641,0.260606,0.38462,0.511918,0
0.444091,0.302919,0.314244,0.527629,0.486126,0.656053,0.455311,0.46372,0.73281,0
0.619995,0.706574,0.372098,0.560999,0.581699,0.299827,0.632353,0.561162,0.45821,0
0.505771,0.623409,0.238703,0.410671,0.611999,0.426206,0.519994,0.394396,0.606148,0
0.492666,0.594606,0.415882,0.502075,0.581699,0.352413,0.449609,0.72841,0.675512,0
0.251039,0.403712,0.372847,0.506433,0.447469,0.220151,0.287825,0.641827,0.43725,0
0.265893,0.421513,0.618019,0.4957,0.561582,0.500262,0.473842,0.404342,0.418385,0
0.461072,0.468827,0.396463,0.423087,0.527794,0.517781,0.538142,0.462362,0.159469,0
0.522629,0.61696,0.518542,0.744661,0.704308,0.42743,0.260259,0.557927,0.38918,0
0.131753,0.675871,0.465776,0.577098,0.581699,0.40028,0.513864,0.434533,0.67375,0
0.394223,0.439971,0.200483,0.577591,0.581699,0.458306,0.60916,0.532673,0.436566,0
0.529213,0.571398,0.151794,0.481716,0.518286,0.564234,0.357553,0.652017,0.439104,0
0.426912,0.767236,0.442435,0.571162,0.723395,0.581674,0.385318,0.663074,0.292054,0
0.456811,0.313401,0.385943,0.373835,0.391751,0.685338,0.292486,0.764945,0.518287,0
0.443546,0.536779,0.21009,0.589225,0.581699,0.412266,0.203359,0.56635,0.408871,0
0.483059,0.669744,0.440652,0.589667,0.629051,0.496504,0.446895,0.519822,0.655432,0
0.70848,0.55043,0.347244,0.504723,0.568639,0.435464,0.527435,0.475039,0.36595,0
0.725389,0.917185,0.202466,0.493395,0.765978,0.535054,0.273856,0.545032,0.671671,0
0.62298,0.576505,0.464437,0.467588,0.705633,0.569117,0.43501,0.337845,0.208929,0
0.505771,0.546072,0.276365,0.571992,0.568929,0.688336,0.370536,0.554687,0.554721,0
0.505771,0.550164,0.482725,0.510191,0.648532,0.41833,0.269219,0.442604,0.360213,0
0.435689,0.690945,0.329948,0.634507,0.581699,0.191693,0.654025,0.749623,0.325731,0
0.644771,0.746431,0.45388,0.48817,0.694693,0.711427,0.534319,0.473678,0.10759,0
0.496669,0.564813,0.185337,0.402641,0.49792,0.646418,0.275394,0.447989,0.41631,0
0.438634,0.545696,0.43291,0.566356,0.568791,0.641048,0.522465,0.328776,0.739168,0
0.505562,0.628377,0.3867,0.456348,0.605025,0.265043,0.324207,0.726581,0.62668,0
0.392022,0.32054,0.347488,0.61334,0.430654,0.454391,0.485068,0.71027,0.683832,0
0.514683,0.26441,0.399088,0.457962,0.456689,0.41435,0.438435,0.511072,0.427312,0
0.655562,0.420189,0.337361,0.577224,0.543764,0.42932,0.30706,0.500502,0.313626,0
0.305051,0.433113,0.395432,0.551038,0.477818,0.29384,0.432127,0.435956,0.437494,0
0.524917,0.637788,0.183858,0.668302,0.581699,0.546769,0.610934,0.592052,0.648681,0
0.609012,0.464942,0.18908,0.558255,0.509611,0.511939,0.752717,0.418898,0.6869,0
0.505771,0.441108,0.588312,0.624531,0.568245,0.715675,0.593683,0.830852,0.481371,0
0.186574,0.51279,0.566072,0.504457,0.581699,0.501167,0.420336,0.395789,0.626811,0
0.606469,0.568358,0.372193,0.619866,0.652918,0.443321,0.570278,0.500427,0.458604,0
0.505771,0.60252,0.364803,0.517041,0.582453,0.49298,0.361035,0.558792,0.368424,0
0.632743,0.751511,0.152749,0.59507,0.623264,0.28472,0.21975,0.627692,0.770604,0
0.435583,0.517113,0.45079,0.476798,0.621907,0.112573,0.476509,0.589692,0.477853,0
0.601426,0.5016,0.212081,0.285422,0.508884,0.493415,0.575079,0.38978,0.475038,0
0.663297,0.635599,0.196865,0.543081,0.577334,0.301222,0.458688,0.532673,0.716578,0
0.562564,0.648741,0.203416,0.544119,0.617569,0.461461,0.148025,0.506158,0.527243,0
0.551809,0.742979,0.593647,0.628944,0.845221,0.276165,0.585665,0.484706,0.430107,0
0.242006,0.597032,0.326882,0.643271,0.625389,0.301524,0.613346,0.662409,0.254982,0
0.481808,0.620231,0.353837,0.533347,0.581699,0.334989,0.560407,0.595058,0.46367,0
0.505771,0.518665,0.455482,0.7251,0.648315,0.143896,0.430852,0.538021,0.790133,0
0.51313,0.777748,0.22625,0.677612,0.65257,0.190502,0.572793,0.659466,0.59504,0
0.722284,0.700057,0.24645,0.394572,0.661598,0.387435,0.53376,0.489795,0.373561,0
0.528387,0.272438,0.14012,0.511678,0.31988,0.539238,0.427812,0.532673,0.321263,0
0.558057,0.541009,0.693359,0.546587,0.581699,0.456515,0.47766,0.532673,0.899007,0
0.491247,0.324446,0.445154,0.527556,0.506766,0.281035,0.620837,0.652719,0.449546,0
0.505771,0.361049,0.263463,0.574171,0.581699,0.502679,0.628405,0.396099,0.607743,0
0.505771,0.665153,0.444911,0.531076,0.682639,0.162937,0.282704,0.581192,0.519492,0
0.537218,0.796641,0.435824,0.790407,0.581699,0.566968,0.537845,0.456749,0.270521,0
0.610777,0.666747,0.469533,0.584777,0.682509,0.438572,0.538939,0.58746,0.439192,0
0.73632,0.61586,0.44876,0.67008,0.683268,0.352303,0.167831,0.477341,0.346961,0
0.505771,0.744448,0.476925,0.747878,0.866266,0.496159,0.422262,0.677099,0.681175,0
0.526506,0.581391,0.403783,0.725192,0.662727,0.317709,0.357956,0.543417,0.560142,0
0.798621,0.656054,0.267287,0.449472,0.581699,0.564067,0.491764,0.892419,0.446179,0
0.464749,0.561692,0.275278,0.457924,0.561492,0.525109,0.549241,0.368871,0.396819,0
0.474567,0.378892,0.173845,0.265959,0.317974,0.448407,0.500565,0.514887,0.446767,0
0.359555,0.391341,0.568921,0.5299,0.542894,0.558098,0.617337,0.506687,0.339374,0
0.493758,0.39286,0.289826,0.357284,0.417317,0.451448,0.619951,0.444334,0.219748,0
0.569831,0.719873,0.52292,0.726703,0.768635,0.510928,0.36507,0.187235,0.397453,0
0.434167,0.544339,0.58511,0.608882,0.711664,0.312274,0.685763,0.333663,0.520246,0
0.445887,0.524051,0.456907,0.530602,0.540597,0.466477,0.657858,0.488403,0.578314,0
0.433097,0.411094,0.237319,0.558286,0.50231,0.254934,0.387319,0.554108,0.381421,0
0.580685,0.473235,0.451732,0.677417,0.583581,0.376907,0.526294,0.65432,0.361607,0
0.683029,0.560704,0.20886,0.428075,0.562789,0.44049,0.457435,0.509573,0.43727,0
0.583414,0.556715,0.440356,0.540933,0.6112,0.601748,0.534187,0.531335,0.536849,0
0.613887,0.807389,0.254009,0.435279,0.581699,0.858732,0.689044,0.439903,0.400641,0
0.505771,0.435102,0.338613,0.360949,0.581699,0.67299,0.34938,0.532673,0.421591,0
0.487533,0.506434,0.75229,0.452897,0.635462,0.335648,0.398712,0.470658,0.298251,0
0.561513,0.568904,0.407579,0.592667,0.594306,0.503626,0.528483,0.693071,0.511941,0
0.354698,0.629023,0.352703,0.461728,0.5187,0.358357,0.606714,0.431359,0.372805,0
0.443388,0.527781,0.21544,0.427947,0.559345,0.616082,0.47845,0.484716,0.396918,0
0.505771,0.397434,0.324206,0.604231,0.581699,0.541088,0.579423,0.577885,0.561081,0
0.697804,0.786507,0.133824,0.626044,0.654115,0.300271,0.492226,0.421115,0.602487,0
0.687905,0.382421,0.382896,0.514576,0.579916,0.412135,0.554413,0.724145,0.656096,0
0.370534,0.207915,0.32409,0.513653,0.581699,0.327584,0.495799,0.794394,0.331491,0
0.545255,0.552142,0.262555,0.74744,0.65212,0.418023,0.319517,0.807262,0.279271,0
0.412229,0.390359,0.403711,0.4837,0.477258,0.231208,0.364168,0.689185,0.612395,0
0.469998,0.543342,0.284636,0.325189,0.45817,0.127496,0.293014,0.592329,0.591025,0
0.34294,0.483659,0.217314,0.675169,0.548425,0.70981,0.390857,0.497235,0.561285,0
0.567773,0.692093,0.308811,0.430526,0.581699,0.442717,0.247636,0.540037,0.423946,0
0.493357,0.614284,0.32296,0.544059,0.599681,0.305977,0.284065,0.489889,0.127578,0
0.505771,0.848181,0.363364,0.502677,0.609708,0.37397,0.486708,0.538586,0.566147,0
0.505771,0.519955,0.195438,0.336142,0.510083,0.380842,0.370758,0.496087,0.380634,0
0.604381,0.599036,0.559644,0.651832,0.726799,0.517365,0.44451,0.532673,0.439014,0
0.551867,0.676537,0.350488,0.466629,0.600156,0.508474,0.467428,0.290763,0.429313,0
0.505771,0.72628,0.315707,0.658917,0.581699,0.45008,0.552669,0.520931,0.440109,0
0.637648,0.705291,0.369425,0.641702,0.678849,0.347487,0.331773,0.609426,0.595928,0
0.44343,0.383722,0.279739,0.615494,0.566093,0.524101,0.462609,0.502833,0.545399,0
0.437745,0.341179,0.15261,0.569544,0.423121,0.408361,0.545435,0.405282,0.601971,0
0.505771,0.561579,0.191455,0.69175,0.599334,0.411124,0.455143,0.503217,0.232352,0
0.522003,0.824373,0.234452,0.606951,0.725973,0.409408,0.557917,0.553287,0.424678,0
0.505771,0.444943,0.649937,0.485557,0.581699,0.583891,0.433566,0.322696,0.54892,0
0.617206,0.55909,0.429394,0.517816,0.634338,0.224705,0.592532,0.551078,0.720949,0
0.505771,0.573384,0.329785,0.505524,0.642745,0.526085,0.388421,0.566619,0.501518,0
0.582372,0.289137,0.16353,0.428678,0.393821,0.53584,0.373313,0.729189,0.275248,0
0.592409,0.575745,0.572937,0.476634,0.619441,0.381213,0.531252,0.642668,0.473571,0
0.505771,0.676183,0.34176,0.496116,0.581699,0.264495,0.289091,0.622998,0.351836,0
0.505771,0.690065,0.421765,0.526226,0.691986,0.285532,0.469051,0.583783,0.426659,0
0.677855,0.67698,0.249446,0.343118,0.581699,0.168724,0.555487,0.654615,0.523722,0
0.559355,0.520026,0.121073,0.351719,0.464493,0.570004,0.5106,0.683678,0.593455,0
0.316449,0.334626,0.468611,0.673923,0.48115,0.442937,0.578517,0.505464,0.554843,0
0.517196,0.557705,0.385218,0.5792,0.602174,0.695515,0.432428,0.502282,0.398241,0
0.505771,0.771779,0.315186,0.658487,0.68125,0.121598,0.406306,0.388716,0.418892,0
0.490522,0.459763,0.39062,0.405318,0.479093,0.52922,0.355659,0.523814,0.44878,0
0.437831,0.554409,0.503544,0.663648,0.624571,0.279623,0.272035,0.639415,0.598579,0
0.565504,0.836529,0.441192,0.694178,0.840234,0.310038,0.492502,0.455141,0.417751,0
0.465116,0.487651,0.473118,0.574072,0.615718,0.513864,0.387787,0.419429,0.642926,0
0.380273,0.670809,0.612496,0.66754,0.714644,0.698448,0.386736,0.442732,0.270509,0
0.483541,0.440728,0.176439,0.529884,0.502215,0.18896,0.62628,0.497019,0.712902,0
0.419855,0.341625,0.218883,0.41876,0.428322,0.6243,0.376783,0.544931,0.488232,0
0.681002,0.560492,0.150258,0.450388,0.541363,0.136665,0.514391,0.532673,0.249242,0
0.452859,0.644183,0.737224,0.427165,0.664731,0.444195,0.351952,0.648475,0.422764,0
0.618685,0.858445,0.439487,0.590674,0.581699,0.578453,0.563684,0.581913,0.419821,0
0.403822,0.35967,0.265022,0.481377,0.484744,0.159055,0.444263,0.7065,0.708827,0
0.473287,0.23529,0.418987,0.571957,0.520543,0.254896,0.659354,0.68997,0.518872,0
0.556702,0.469489,0.295926,0.564828,0.594351,0.331783,0.262032,0.612923,0.51483,0
0.542366,0.776715,0.296359,0.465405,0.581699,0.360484,0.550804,0.414507,0.364405,0
0.52591,0.501502,0.261837,0.388651,0.533813,0.415793,0.529665,0.51874,0.559371,0
0.665736,0.298855,0.257464,0.317263,0.405279,0.556712,0.416738,0.666058,0.521046,0
0.265699,0.730624,0.382062,0.573913,0.632205,0.430197,0.69708,0.307207,0.239818,0
0.4754,0.613036,0.332493,0.675713,0.581699,0.271654,0.595632,0.575735,0.283918,0
0.70492,0.604784,0.246377,0.234802,0.47747,0.424596,0.650898,0.562481,0.360274,0
0.39933,0.659287,0.575471,0.597858,0.581699,0.503497,0.424581,0.618639,0.619559,0
0.396745,0.659036,0.509365,0.579995,0.581699,0.219265,0.451142,0.702044,0.122124,0
0.294752,0.28308,0.178882,0.392486,0.376231,0.461229,0.62743,0.695232,0.569144,0
0.426431,0.663847,0.262751,0.386843,0.528892,0.255837,0.426283,0.314908,0.752255,0
0.505771,0.661388,0.260093,0.358643,0.581699,0.467532,0.253505,0.532673,0.595751,0
0.597797,0.493552,0.207778,0.489147,0.530923,0.545557,0.413299,0.700065,0.412129,0
0.448875,0.517192,0.195148,0.59168,0.581699,0.373829,0.423224,0.472082,0.364366,0
0.804845,0.415189,0.093905,0.536471,0.581699,0.236163,0.366602,0.201094,0.511126,0
0.664144,0.419333,0.224436,0.305104,0.581699,0.381202,0.50444,0.674865,0.42188,0
0.563962,0.387511,0.122297,0.536459,0.367334,0.395637,0.544829,0.505249,0.526933,0
0.567678,0.806615,0.560202,0.517126,0.741709,0.426931,0.4425,0.453488,0.425573,0
0.716154,0.64142,0.24039,0.553919,0.590781,0.587608,0.638257,0.524293,0.516596,0
0.463442,0.645829,0.567158,0.673166,0.728646,0.250107,0.402166,0.78187,0.594077,0
0.419267,0.581422,0.359951,0.488905,0.63507,0.496858,0.484218,0.625373,0.612463,0
0.505771,0.628896,0.34626,0.467544,0.587579,0.350985,0.279705,0.699746,0.417844,0
0.378867,0.411823,0.410115,0.464504,0.487175,0.55312,0.490921,0.489831,0.513466,0
0.538115,0.50595,0.185889,0.433557,0.581699,0.3183,0.327209,0.396199,0.380557,0
0.291258,0.581831,0.293468,0.592718,0.581699,0.186902,0.425544,0.28465,0.24743,0
0.505771,0.211929,0.61746,0.411541,0.581699,0.310225,0.383414,0.570994,0.458282,0
0.506155,0.514028,0.065405,0.25549,0.370347,0.383697,0.413525,0.512439,0.371817,0
0.447929,0.602167,0.402671,0.627867,0.581699,0.632862,0.602166,0.680184,0.728603,0
0.568412,0.831731,0.276514,0.586265,0.762524,0.582203,0.472405,0.485322,0.378284,0
0.633974,0.658306,0.462461,0.388785,0.633356,0.512869,0.478313,0.420575,0.483455,0
0.505771,0.526004,0.294496,0.557358,0.524888,0.491238,0.449507,0.425499,0.549877,0
0.472408,0.339861,0.415846,0.537845,0.472223,0.337997,0.453573,0.596788,0.395116,0
0.55255,0.326038,0.269316,0.573294,0.436155,0.723685,0.634335,0.505466,0.132088,0
0.708932,0.693823,0.170486,0.450726,0.632324,0.392433,0.43488,0.476422,0.615202,0
0.643042,0.564248,0.315274,0.53955,0.572,0.32352,0.516835,0.445875,0.653212,0
0.363983,0.81967,0.426662,0.772431,0.713579,0.581252,0.615801,0.492343,0.548723,0
0.613906,0.784689,0.375974,0.472991,0.724262,0.712359,0.436015,0.693268,0.624706,0
0.505984,0.237179,0.135607,0.302018,0.300692,0.442878,0.812242,0.757917,0.460896,0
0.548777,0.4834,0.19349,0.39489,0.475069,0.504236,0.52229,0.495401,0.440274,0
0.505771,0.313325,0.294741,0.435215,0.581699,0.408716,0.356494,0.748307,0.352278,0
0.458555,0.585176,0.499764,0.580498,0.581699,0.598253,0.690901,0.532673,0.311067,0
0.317374,0.477069,0.405338,0.359829,0.48171,0.43378,0.595009,0.45115,0.343794,0
0.498476,0.492618,0.374239,0.481317,0.551531,0.504661,0.53191,0.529423,0.62714,0
0.473115,0.564391,0.276595,0.445996,0.519064,0.400028,0.52546,0.521517,0.277021,0
0.261765,0.55738,0.456141,0.417224,0.57104,0.191769,0.585082,0.603299,0.352838,0
0.343867,0.572313,0.284527,0.608147,0.629172,0.406651,0.337142,0.378581,0.707289,0
0.412834,0.551899,0.391412,0.712808,0.581699,0.432046,0.529598,0.520312,0.606235,0
0.495558,0.472071,0.202036,0.550206,0.581699,0.451407,0.273879,0.6687,0.429966,0
0.531199,0.582759,0.463395,0.481257,0.596607,0.596843,0.571467,0.52387,0.430642,0
0.337379,0.743014,0.369621,0.436043,0.708916,0.401867,0.551133,0.535367,0.466551,0
0.670047,0.789393,0.243585,0.306814,0.580445,0.562528,0.348138,0.79731,0.488627,0
0.557867,0.507389,0.329982,0.537213,0.55742,0.296756,0.559402,0.549622,0.488518,0
0.674046,0.349507,0.335006,0.575194,0.581699,0.504106,0.460374,0.53009,0.559863,0
0.67188,0.6142,0.453609,0.454334,0.643333,0.291155,0.54179,0.254501,0.311454,0
0.451519,0.579726,0.134817,0.441165,0.447374,0.542584,0.319804,0.598439,0.576944,0
0.505771,0.616404,0.290009,0.645179,0.581699,0.39824,0.307041,0.143288,0.407479,0
0.336097,0.202188,0.31581,0.502176,0.581699,0.329967,0.267542,0.755809,0.37577,0
0.635458,0.634129,0.140379,0.443001,0.576662,0.426229,0.331331,0.532673,0.42559,0
0.470134,0.818126,0.605004,0.60765,0.815507,0.297264,0.495377,0.637042,0.520261,0
0.48251,0.666788,0.299079,0.657936,0.606618,0.356086,0.447848,0.637378,0.701972,0
0.674652,0.356824,0.21094,0.711739,0.515817,0.719015,0.245456,0.623383,0.45853,1
0.644632,0.29259,0.3208,0.599955,0.48618,0.471549,0.481642,0.592559,0.479344,1
0.505771,0.444492,0.378987,0.639353,0.581699,0.51427,0.410885,0.406645,0.245285,1
0.485723,0.705773,0.637413,0.716219,0.165243,0.340946,0.353734,0.592553,0.454706,1
0.512438,0.565765,0.32969,0.573762,0.449068,0.234439,0.472548,0.597651,0.470769,1
0.546999,0.687466,0.228628,0.464741,0.693591,0.411186,0.316637,0.690519,0.18667,1
0.594499,0.579707,0.455269,0.66341,0.479541,0.30994,0.632539,0.488175,0.49199,1
0.423877,0.639939,0.376459,0.332748,0.581699,0.1677,0.351221,0.53452,0.712402,1
0.700194,0.186221,0.443904,0.694024,0.551654,0.578718,0.45858,0.476355,0.24856,1
0.435854,0.608781,0.257051,0.665766,0.50985,0.413318,0.419436,0.501109,0.394327,1
0.356984,0.843878,0.435559,0.452349,0.696624,0.203071,0.512321,0.566454,0.369566,1
0.343983,0.617555,0.263868,0.556491,0.425367,0.5246,0.510241,0.624324,0.553077,1
0.467716,0.838447,0.413544,0.500773,0.675712,0.552301,0.550313,0.63755,0.408747,1
0.9411,0,0.310592,0.669669,0.699221,0.557414,0.378693,0.532673,0.502349,1
0.472715,0.675499,0.316518,0.340434,0.862301,0.385036,0.366519,0.587804,0.564889,1
0.55629,0.599435,0.485305,0.52031,0.658091,0.311415,0.48386,0.674322,0.362783,1
0.370845,0.593641,0.238812,0.539076,0.551399,0.362385,0.596935,0.671475,0.455625,1
0.401881,0.665329,0.231856,0.380303,0.581699,0.288654,0.351291,0.344447,0.093273,1
0.490688,0.739454,0.351489,0.66154,0.428306,0.625999,0.413569,0.451653,0.619532,1
0.647045,0.391471,0.253119,0.540116,0.608566,0.492963,0.599788,0.668796,0.416361,1
0.520849,0.290586,0.450908,0.736006,0.336151,0.45145,0.577971,0.477181,0.733355,1
0.519708,0.463519,0.366528,0.589812,0.466749,0.335506,0.582823,0.454814,0.682983,1
0.465196,0.659547,0.363741,0.957184,0.179057,0.521138,0.298217,0.534882,0.598027,1
0.514849,0.465876,0.58259,0.60384,0.542857,0.50201,0.535023,0.571211,0.437274,1
0.505771,0.39569,0.259829,0.491397,0.634472,0.783056,0.433245,0.33751,0.439198,1
0.380353,0.843904,0.575043,0.993488,0.145461,0.368863,0.318192,0.440904,0.562892,1
0.505879,0.442657,0.484774,0.398543,0.628928,0.299981,0.642128,0.240553,0.38487,1
0.381013,0.643312,0.469189,0.445912,0.581699,0.312482,0.384956,0.538826,0.688477,1
0.768707,0.124338,0.421615,0.636039,0.538099,0.369357,0.402925,0.417882,0.60726,1
0.449058,0.764868,0.220937,0.55822,0.567225,0.667911,0.546392,0.590439,0.501959,1
0.699611,0.299026,0.334314,0.707541,0.462971,0.429547,0.369855,0.632583,0.282741,1
0.58646,0.434072,0.223493,0.788324,0.325216,0.366498,0.442416,0.489366,0.666677,1
0.495837,0.456678,0.32494,0.496688,0.581699,0.337499,0.679597,0.532673,0.588615,1
0.739723,0.322431,0.793032,0.68937,0.565072,0.322171,0.604428,0.621618,0.520297,1
0.568499,0.449965,0.382635,0.71904,0.37207,0.255553,0.533223,0.8682,0.614106,1
0.277331,0.712302,0.122005,0.013961,0.581699,0.279452,0.413433,0.481673,0.43184,1
0.405127,0.611591,0.256595,0.559575,0.581699,0.334089,0.601369,0.622413,0.450588,1
0.714521,0.34699,0.751861,0.983185,0.581699,0.687357,0.565644,0.292302,0.623252,1
0.468061,0.549073,0.553071,0.652775,0.414465,0.517051,0.466269,0.628215,0.612211,1
0.544897,0.396681,0.425623,0.625097,0.358046,0.549932,0.438083,0.526252,0.516555,1
0.342203,0.802667,0.288007,0.328969,0.705169,0.747323,0.329744,0.673072,0.342004,1
0.550783,0.487885,0.102316,0.394305,0.743107,0.58546,0.567463,0.466516,0.536764,1
0.592236,0.594087,0.323238,0.658777,0.416916,0.514857,0.399029,0.534431,0.37336,1
0.442369,0.64656,0.206264,0.343433,0.581699,0.36359,0.473568,0.6143,0.38129,1
0.64519,0.26845,0.25116,0.454442,0.692915,0.365778,0.491583,0.506138,0.657443,1
0.438535,0.686426,0.127418,0.461746,0.581699,0.410512,0.40525,0.854272,0.342391,1
0.509245,0.474952,0.418999,0.558577,0.522633,0.24799,0.544297,0.555075,0.372209,1
0.505771,0.52179,0.355093,0.412899,0.643378,0.573434,0.555229,0.676362,0.502853,1
0.387036,0.509064,0.584206,0.31351,0.581699,0.477454,0.159926,0.832657,0.577905,1
0.576821,0.538184,0.478812,0.793882,0.482166,0.245278,0.289314,0.584093,0.422182,1
0.505771,0.645125,0.364343,0.524898,0.70485,0.192128,0.359771,0.58226,0.49758,1
0.717834,0.309769,0.184482,0.641767,0.552532,0.456903,0.428205,0.74182,0.696441,1
0.404832,0.661957,0.273091,0.65928,0.4675,0.651624,0.461864,0.435647,0.412784,1
0.505771,0.486982,0.450779,0.566565,0.480716,0.412947,0.246364,0.585625,0.445816,1
0.637427,0.321034,0.453136,0.940218,0.581699,0.409447,0.37356,0.556351,0.511549,1
0.459205,0.646305,0.250804,0.454127,0.581699,0.497606,0.605953,0.701154,0.51707,1
0.497186,0.559623,0.181061,0.308876,0.581699,0.50206,0.317647,0.721619,0.6672,1
0.419548,0.565479,0.310243,0.693603,0.581699,0.417599,0.341735,0.523207,0.749119,1
0.485391,0.509086,0.24595,0.558481,0.533922,0.554651,0.666683,0.443471,0.70204,1
0.717216,0.240845,0.261804,0.5939,0.667177,0.657509,0.421277,0.604365,0.445748,1
0.505771,0.819116,0.725467,0.630974,0.29768,0.531886,0.479119,0.417211,0.505725,1
0.521146,0.68302,0.58652,0.379195,0.705026,0.35696,0.569069,0.721111,0.513996,1
0.505771,0.414936,0.475783,0.522646,0.62901,0.339764,0.672896,0.69738,0.387139,1
0.41876,0.499228,0.71829,0.315516,0.805868,0.262454,0.502149,0.477583,0.767143,1
0.520867,0.460835,0.552828,0.717009,0.369755,0.443508,0.539985,0.656748,0.570413,1
0.575915,0.555189,0.18466,0.746611,0.581699,0.575196,0.323791,0.326579,0.571345,1
0.558712,0.398088,0.377584,0.683526,0.556348,0.197868,0.574206,0.582746,0.393828,1
0.807271,0.108917,0.638796,0.639216,0.592282,0.4011,0.464632,0.424975,0.351594,1
0.470983,0.674964,0.414878,0.73845,0.581699,0.538979,0.467035,0.370966,0.169518,1
0.654363,0.262648,0.431764,0.450378,0.608723,0.346661,0.333331,0.436815,0.65004,1
0.505771,0.353232,0.232917,0.427952,0.638033,0.191316,0.258317,0.542335,0.845638,1
0.33164,0.944075,0.259333,0.575761,0.581699,0.451966,0.622252,0.481964,0.478893,1
0.557032,0.511306,0.531696,0.839677,0.366988,0.569537,0.615802,0.685042,0.502414,1
0.397453,0.757283,0.179371,0.537006,0.569094,0.328878,0.514945,0.408985,0.158062,1
0.563328,0.600745,0.632629,0.846872,0.433771,0.252915,0.313608,0.518607,0.593682,1
0.531656,0.528462,0.217236,0.310079,0.581699,0.435428,0.658863,0.578748,0.22969,1
0.261223,0.828225,0.384458,0.684835,0.581699,0.427986,0.604826,0.445854,0.352549,1
0.685514,0.434024,0.34204,0.594322,0.616637,0.268797,0.465428,0.404865,0.698649,1
0.497445,0.5997,0.486588,0.573244,0.54612,0.343794,0.418686,0.578856,0.480325,1
0.548065,0.382479,0.372185,0.460267,0.609149,0.384111,0.461789,0.515595,0.532847,1
0.481215,0.626308,0.400186,0.627919,0.581699,0.354677,0.174256,0.060342,0.494076,1
0.505771,0.420007,0.29963,0.607229,0.474931,0.49358,0.563224,0.491732,0.507798,1
0.384464,0.698556,0.293376,0.407044,0.763286,0.647,0.406848,0.641251,0.514905,1
0.501639,0.78745,0.257074,0.830075,0.377991,0.40434,0.11936,0.610784,0.665893,1
0.505771,0.737321,0.443879,0.479846,0.705501,0.661586,0.438849,0.626144,0.287226,1
0.716159,0.169244,0.413573,0.490185,0.728353,0.361949,0.371156,0.556019,0.432261,1
0.398845,0.77551,0.57396,0.488659,0.581699,0.169894,0.435455,0.669605,0.457583,1
0.568066,0.630914,0.30047,0.510953,0.581699,0.223431,0.645861,0.583727,0.720366,1
0.39287,0.751711,0.340883,0.627582,0.621584,0.504166,0.432812,0.481153,0.515878,1
0.538836,0.414198,0.30859,0.637292,0.457233,0.452559,0.426696,0.64501,0.412278,1
0.489167,0.405366,0.205505,0.376708,0.695939,0.659834,0.385214,0.560061,0.557119,1
0.505771,0.485246,0.491901,0.78517,0.362554,0.535995,0.350433,0.552529,0.440453,1
0.422161,0.853514,0.245031,0.491941,0.665808,0.898623,0.419094,0.72255,0.418023,1
0.62263,0.386475,0.187395,0.530067,0.581699,0.464353,0.40368,0.317937,0.331845,1
0.429778,0.630106,0.268201,0.379623,0.581699,0.352751,0.778462,0.65623,0.561972,1
0.683416,0.455869,0.631569,0.375577,0.897565,0.543714,0.410123,0.387333,0.519554,1
0.306875,0.83686,0.317727,0.36033,0.811397,0.259826,0.348398,0.567308,0.513014,1
0.253684,1,0.634556,0.671117,0.581699,0.5828,0.304992,0.570833,0.475703,1
0.609262,0.39997,0.293612,0.671219,0.512859,0.554625,0.386507,0.416112,0.439788,1
0.576096,0.459529,0.345537,0.558821,0.528876,0.551772,0.353142,0.368931,0.436073,1
0.654175,0.50506,0.254097,0.610496,0.581802,0.427148,0.382477,0.907699,0.58144,1
0.632042,0.51321,0.520675,1,0.151684,0.521647,0.378178,0.624145,0.484909,1
0.678247,0.502178,0.291717,0.561673,0.737915,0.398642,0.390717,0.508033,0.513999,1
0.575207,0.549753,0.14291,0.537439,0.594826,0.256968,0.265997,0.340861,0.413092,1
0.199896,0.957416,0.436906,0.529542,0.581699,0.593952,0.461117,0.335402,0.418463,1
0.458991,0.513429,0.191187,0.565098,0.671685,0.562214,0.446992,0.779479,0.43145,1
0.554091,0.60073,0.409463,0.57011,0.66666,0.633102,0.500154,0.86362,0.513411,1
0.553475,0.697722,0.476311,0.811045,0.24998,0.454738,0.543655,0.532673,0.200758,1
0.365528,0.646466,0.502299,0.458374,0.689285,0.306681,0.225035,0.621847,0.470257,1
0.534395,0.619638,0.193206,0.353711,0.790546,0.589117,0.571684,0.454098,0.531682,1
0.383873,0.55823,0.313421,0.226034,0.725968,0.294993,0.431076,0.532673,0.414592,1
0.504546,0.337989,0.289311,0.463664,0.701775,0.386651,0.392327,0.233084,0.367908,1
0.491175,0.520191,0.355597,0.413194,0.667077,0.293258,0.281676,0.549016,0.585241,1
0.343745,0.735429,0.18298,0.313945,0.764598,0.74414,0.613411,0.501156,0.297031,1
0.356681,0.707995,0.222963,0.478728,0.581699,0.434275,0.577573,0.490888,0.322142,1
0.342062,0.679968,0.45732,0.821764,0.165963,0.460552,0.367234,0.716141,0.273559,1
0.288378,0.885154,0.853738,0.581406,0.581699,0.384222,0.549537,0.706437,0.301578,1
0.464705,0.699534,0.479651,0.502801,0.604289,0.146483,0.435641,0.749854,0.576201,1
0.48427,0.386135,0.395594,0.545649,0.581699,0.486821,0.48208,0.755924,0.241842,1
0.496608,0.595829,0.548652,0.465665,0.581699,0.374084,0.459096,0.316926,0.502079,1
0.402029,0.650719,0.459945,0.599648,0.468494,0.296712,0.491159,0.27941,0.680787,1
0.426143,0.534525,0.279596,0.32208,0.782915,0.394018,0.357854,0.384834,0.515625,1
0.451388,0.484358,0.590379,0.752137,0.416418,0.220697,0.612909,0.753324,0.227477,1
0.573375,0.529288,0.121396,0.448942,0.581699,0.453705,0.777957,0.497064,0.383937,1
0.634477,0.319527,0.07448,0.380257,0.581699,0.613531,0.693344,0.159009,0.449597,1
0.427949,0.642661,0.487014,0.550436,0.57021,0.739951,0.595449,0.522294,0.641059,1
0.733746,0.421458,0.304959,0.760564,0.39953,0.463343,0.369997,0.662877,0.327072,1
0.505771,0.305108,0.349809,0.536661,0.581699,0.366299,0.484481,0.209046,0.6198,1
0.436081,0.731648,0.737667,0.549304,0.595889,0.233417,0.346811,0.713273,0.312552,1
0.674526,0.094527,0.330299,0.600623,0.530652,0.484724,0.396118,0.406569,0.385072,1
0.491958,0.639014,0.473978,0.795496,0.354601,0.358723,0.34913,0.545003,0.588805,1
0.465207,0.441745,0.407683,0.333566,0.700542,0.200383,0.49382,0.594976,0.558525,1
0.412337,0.601873,0.423667,0.648041,0.409849,0.496758,0.22246,0.480491,0.953725,1
0.350897,0.946062,0.718188,0.593031,0.431592,0.255294,0.48498,0.532673,0.6518,1
0.695683,0.433516,0.218405,0.538859,0.727377,0.32894,0.387839,0.549787,0.211397,1
0.395856,0.501429,0.325453,0.773712,0.228591,0.588348,0.623142,0.394552,0.420302,1
0.505771,0.529836,0.688721,0.677412,0.367561,0.355334,0.263804,0.606039,0.406832,1
0.505771,0.347737,0.26175,0.460097,0.581699,0.563391,0.666111,0.532673,0.378472,1
0.460638,0.699377,0.22425,0.683052,0.5272,0.511083,0.583023,0.675689,0.410701,1
0.391279,0.594746,0.443973,0.427276,0.601152,0.308748,0.55285,0.532673,0.439451,1
0.610336,0.485982,0.510759,0.563838,0.628914,0.371431,0.308323,0.665119,0.164143,1
0.527043,0.466283,0.150057,0.437496,0.581699,0.385648,0.514922,0.297346,0.333753,1
0.476,0.551908,0.255836,0.384015,0.618084,0.290053,0.52833,0.490164,0.147046,1
0.48397,0.620195,0.289756,0.618561,0.581699,0.309926,0.31878,0.458423,0.545214,1
0.624027,0.534095,0.393436,0.665639,0.568144,0.266045,0.548515,0.539602,0.444718,1
0.510498,0.540932,0.27239,0.51182,0.542853,0.592152,0.408208,0.536063,0.487004,1
0.505771,0.709043,0.153248,0.461995,0.655244,0.711859,0.49797,0.503682,0.794521,1
0.360024,0.670322,0.41593,0.43658,0.566228,0.607788,0.43446,0.305112,0.407133,1
0.505771,0.849318,0.351139,0.366752,0.622786,0.29111,0.504601,0.691067,0.482855,1
0.55325,0.438619,0.230119,0.384525,0.581699,0.419687,0.202928,0.542639,0.490326,1
0.447118,0.583794,0.608079,0.642934,0.36211,0.347562,0.12903,0.549268,0.522482,1
0.614028,0.515398,0.233113,0.373552,0.835127,0.291257,0.580769,0.532673,0.391356,1
0.411954,0.816274,0.247873,0.577445,0.529513,0.42489,0.501313,0.487451,0.462486,1
0.506353,0.576484,0.22196,0.605577,0.546248,0.329602,0.48644,0.534931,0.7962,1
0.573513,0.401203,0.317579,0.632599,0.43823,0.436858,0.708667,0.480561,0.555597,1
0.505771,0.866074,0.76529,0.554836,0.379304,0.657397,0.470178,0.594716,0.504997,1
0.337556,0.733569,0.336802,0.366654,0.710162,0.401551,0.596538,0.633443,0.322619,1
0.585412,0.606059,0.165313,0.465237,0.563002,0.387694,0.49299,0.584274,0.334413,1
0.460268,0.541126,0.417354,0.166918,0.871154,0.298797,0.564154,0.262156,0.57642,1
0.502792,0.479569,0.468038,0.359574,0.741098,0.720304,0.378514,0.467504,0.551339,1
0.505771,0.501733,0.443702,0.671684,0.581699,0.231517,0.42989,0.456238,0.559192,0
0.505771,0.502063,0.24055,0.494273,0.617805,0.414385,0.631579,0.54335,0.692081,0
0.496087,0.629427,0.592999,0.407018,0.593596,0.326154,0.688151,0.424054,0.637754,0
0.410151,0.510659,0.43527,0.457982,0.537955,0.553736,0.285723,0.428117,0.354144,0
0.399759,0.470749,0.289041,0.632757,0.496361,0.648455,0.311877,0.4631,0.715657,0
0.525027,0.530307,0.433702,0.787835,0.512503,0.657526,0.548648,0.489521,0.41859,0
0.447343,0.578391,0.510515,0.326894,0.627033,0.674193,0.527339,0.586431,0.484499,0
0.709073,0.584198,0.317637,0.599344,0.600055,0.526981,0.350974,0.690327,0.491914,0
0.384386,0.464802,0.247118,0.556184,0.520849,0.222513,0.382335,0.532673,0.550967,0
0.354382,0.431017,0.359705,0.749125,0.471924,0.468059,0.375538,0.508591,0.463762,0
0.461221,0.525343,0.29585,0.663807,0.587932,0.587467,0.811236,0.414232,0.224497,0
0.467098,0.606498,0.343306,0.480125,0.590786,0.613943,0.615467,0.731532,0.581842,0
0.446601,0.646925,0.387469,0.521813,0.496524,0.530029,0.430403,0.540827,0.240671,0
0.569096,0.482784,0.312991,0.744911,0.558181,0.357731,0.347323,0.539779,0.495247,0
0.505771,0.599581,0.602726,0.366992,0.63081,0.618717,0.524714,0.264743,0.638267,0
0.543537,0.637873,0.665923,0.522794,0.515956,0.330129,0.466489,0.592388,0.320636,0
0.49199,0.456644,0.322249,0.558646,0.582614,0.453816,0.328755,0.716097,0.757135,0
0.705648,0.585703,0.235653,0.46092,0.675559,0.456151,0.667664,0.536082,0.523507,0
0.545626,0.474586,0.295332,0.485017,0.66282,0.37194,0.348344,0.659174,0.576031,0
0.497278,0.638988,0.505379,0.261453,0.610252,0.609832,0.439674,0.565438,0.377525,0
0.575758,0.582573,0.249045,0.412391,0.66179,0.423071,0.504657,0.606088,0.406675,0
0.517162,0.602089,0.379469,0.436467,0.566312,0.251642,0.453393,0.485414,0.450482,0
0.53477,0.552231,0.411699,0.360748,0.606349,0.460244,0.533158,0.344015,0.680438,0
0.600747,0.679906,0.447136,0.417199,0.663265,0.590264,0.470583,0.445316,0.28878,0
0.438852,0.463713,0.472057,0.916676,0.450808,0.504494,0.419253,0.669644,0.3831,0
0.435441,0.462254,0.262589,0.603602,0.581699,0.44469,0.324095,0.497685,0.698142,0
0.456059,0.711867,0.650826,0.496725,0.477758,0.44809,0.52749,0.439651,0.509548,0
0.675905,0.645529,0.195443,0.205822,0.733171,0.531973,0.421624,0.499422,0.264735,0
0.562011,0.549903,0.330231,0.45863,0.59346,0.643395,0.547953,0.532673,0.54186,0
0.419511,0.385363,0.354476,0.735881,0.540739,0.298976,0.458012,0.523248,0.694061,0
0.505771,0.505785,0.42169,0.637302,0.544536,0.616667,0.677779,0.435138,0.698452,0
0.466379,0.589687,0.470381,0.305139,0.581699,0.422016,0.187406,0.672974,0.361333,0
0.368015,0.579876,0.438037,0.496267,0.581699,0.29469,0.394272,0.39846,0.612562,0
0.561333,0.593136,0.433172,0.481962,0.603192,0.336777,0.253333,0.584623,0.372938,0
0.550315,0.679033,0.356883,0.608407,0.581699,0.377569,0.486497,0.40712,0.298991,0
0.480572,0.557488,0.370534,0.572367,0.541042,0.251904,0.558939,0.472353,0.559784,0
0.747464,0.520736,0.104748,0.510987,0.581699,0.555116,0.473646,0.53515,0.662953,0
0.650913,0.57495,0.337366,0.517479,0.573627,0.420656,0.533677,0.62516,0.589353,0
0.577129,0.459676,0.202884,0.5435,0.58115,0.713582,0.48476,0.314707,0.408595,0
0.505619,0.671582,0.424535,0.278853,0.582793,0.347946,0.284813,0.33436,0.424776,0
0.505771,0.33334,0.042545,0.781701,0.608805,0.61449,0.340166,0.336152,0.499735,0
0.574564,0.443452,0.140794,0.585977,0.567961,0.43604,0.385574,0.613297,0.323303,0
0.502875,0.52785,0.339333,0.475175,0.545262,0.349516,0.505611,0.710361,0.480887,0
0.391712,0.430661,0.341903,0.567954,0.55033,0.218362,0.458659,0.51434,0.49416,0
0.6096,0.729602,0.362054,0.20679,0.673652,0.280273,0.478655,0.632563,0.206983,0
0.519042,0.469443,0.238697,0.619161,0.56294,0.460872,0.679069,0.700363,0.360643,0
0.446904,0.484745,0.272301,0.879386,0.581699,0.524296,0.323362,0.598881,0.516364,0
0.517168,0.560644,0.232189,0.499818,0.525645,0.61784,0.460299,0.666936,0.441099,0
0.620865,0.351132,0.036647,0.692809,0.622034,0.587459,0.450706,0.337904,0.157587,0
0.61711,0.439556,0.109878,0.63402,0.642597,0.41672,0.602659,0.26694,0.518611,0
0.512847,0.483954,0.17303,0.619296,0.60308,0.308769,0.377981,0.670052,0.459151,0
0.511714,0.567117,0.556677,0.7092,0.543302,0.409356,0.537205,0.725659,0.360053,0
0.63758,0.517084,0.245109,0.526358,0.603717,0.315494,0.730961,0.532673,0.246197,0
0.453794,0.576142,0.296983,0.263936,0.622701,0.364075,0.421664,0.483144,0.265868,0
0.477254,0.693094,0.423787,0.465946,0.511992,0.252759,0.227518,0.367909,0.284883,0
0.388952,0.558404,0.454472,0.536747,0.575483,0.321072,0.367386,0.529008,0.47211,0
0.538563,0.501988,0.348967,0.555068,0.579721,0.459262,0.522244,0.392091,0.582642,0
0.505771,0.553103,0.246519,0.6059,0.495205,0.381426,0.368649,0.466359,0.573352,0
0.312177,0.512246,0.479777,0.607837,0.488657,0.480581,0.542024,0.372856,0.604912,0
0.736886,0.616031,0.170025,0.242154,0.763442,0.543356,0.406618,0.580422,0.370079,0
0.4714,0.547318,0.340818,0.460449,0.575222,0.466031,0.411353,0.479431,0.61492,0
0.299827,0.515219,0.508506,0.528627,0.581699,0.331004,0.374958,0.402272,0.710244,0
0.565771,0.45676,0.215638,0.516313,0.647012,0.506917,0.547044,0.545687,0.363836,0
0.452195,0.432751,0.296788,0.604652,0.581699,0.446803,0.41016,0.542832,0.470789,0
0.505771,0.485557,0.379484,0.577502,0.581699,0.259255,0.386043,0.308439,0.695471,0
0.554582,0.503099,0.420402,0.599547,0.581699,0.380597,0.791055,0.279938,0.502019,0
0.588367,0.517344,0.323357,0.628823,0.645091,0.343089,0.595438,0.299978,0.659692,0
0.40566,0.510558,0.579944,0.667762,0.548729,0.130834,0.490431,0.532673,0.168193,0
0.529826,0.530809,0.37576,0.557348,0.581699,0.550173,0.518941,0.587768,0.609105,0
0.341142,0.539885,0.309736,0.359368,0.568541,0.485434,0.428006,0.680228,0.554389,0
0.561792,0.589815,0.229692,0.49009,0.581699,0.387992,0.40917,0.595453,0.63245,0
0.421676,0.560161,0.411668,0.574572,0.524523,0.44283,0.605621,0.480555,0.593134,0
0.550408,0.476948,0.298092,0.616378,0.584864,0.588536,0.323326,0.506397,0.456033,0
0.558223,0.518266,0.326866,0.691577,0.586991,0.345783,0.48963,0.589699,0.311243,0
0.438553,0.43894,0.387041,0.715662,0.536959,0.546718,0.648123,0.482929,0.452112,0
0.3601,0.528618,0.279468,0.586378,0.548552,0.459851,0.585164,0.533856,0.584928,0
0.619657,0.55607,0.241825,0.648014,0.647118,0.454333,0.599734,0.599118,0.667154,0
0.54924,0.630867,0.491459,0.463194,0.543925,0.609001,0.60434,0.681137,0.66715,0
0.612152,0.553661,0.155344,0.415632,0.581699,0.576502,0.369965,0.52985,0.596409,0
0.405126,0.4982,0.282512,0.388474,0.596699,0.398692,0.497933,0.25315,0.343863,0
0.4732,0.569153,0.346801,0.440579,0.520737,0.404843,0.374142,0.501228,0.262982,0
0.467215,0.53732,0.480994,0.528895,0.568128,0.610843,0.371624,0.546831,0.171286,0
0.505771,0.44164,0.29697,0.374156,0.607725,0.296245,0.656484,0.697209,1,0
0.660086,0.639334,0.349548,0.294652,0.581699,0.522033,0.403273,0.525813,0.721446,0
0.505771,0.417837,0.34476,0.565423,0.455098,0.48321,0.202196,0.482715,0.579501,0
0.452915,0.402299,0.245743,0.567339,0.606333,0.268342,0.269621,0.303142,0.757914,0
0.427168,0.485421,0.188903,0.261175,0.645304,0.632786,0.253973,0.482455,0.528879,0
0.543284,0.452556,0.174188,0.632535,0.581699,0.383351,0.396952,0.412988,0.338977,0
0.459108,0.474785,0.421513,0.543448,0.570107,0.673717,0.374493,0.486758,0.866514,0
0.505771,0.539794,0.288779,0.259904,0.581699,0.412346,0.473451,0.462402,0.461001,0
0.436362,0.523496,0.435637,0.682005,0.520415,0.339356,0.510116,0.592654,0.648724,0
0.417352,0.4384,0.309249,0.510869,0.575171,0.5688,0.472266,0.646474,0.509213,0
0.383396,0.464289,0.47102,0.4798,0.581699,0.493119,0.657863,0.539892,0.532651,0
0.381849,0.49821,0.360446,0.733863,0.539812,0.543231,0.371443,0.702241,0.283676,0
0.384736,0.599078,0.653929,0.608394,0.539134,0.30438,0.580414,0.514943,0.418333,0
0.708534,0.579029,0.266366,0.523469,0.66482,0.170093,0.569063,0.353406,0.504346,0
0.505771,0.619786,0.685322,0.468037,0.555468,0.562474,0.517706,0.387466,0.544153,0
0.508676,0.568504,0.332534,0.52737,0.581699,0.30155,0.547439,0.456627,0.439516,0
0.672735,0.457787,0.138849,0.634378,0.651341,0.726302,0.558821,0.848067,0.596452,0
0.532655,0.782049,0.505106,0.104266,0.581699,0.70493,0.368178,0.363156,0.502277,0
0.376588,0.5763,0.687777,0.665183,0.581699,0.400737,0.37272,0.371585,0.684166,0
0.520854,0.561848,0.354163,0.569608,0.598894,0.345866,0.209002,0.513407,0.527064,0
0.557417,0.639323,0.608408,0.494166,0.581699,0.283777,0.555456,0.600708,0.275551,0
0.488882,0.544189,0.382357,0.629699,0.581699,0.603195,0.332494,0.497308,0.269817,0
0.400625,0.382753,0.320411,0.70403,0.552206,0.724991,0.466694,0.395014,0.603935,0
0.407225,0.674967,0.674654,0.433931,0.514616,0.574065,0.784936,0.592347,0.369283,0
0.386626,0.649836,0.741954,0.525885,0.507403,0.417308,0.756329,0.471465,0.499377,0
0.505771,0.583062,0.278196,0.230462,0.733092,0.786593,0.237723,0.548122,0.465522,0
0.358438,0.442397,0.472055,0.810918,0.477269,0.499659,0.525431,0.18704,0.536298,0
0.32516,0.542798,0.421111,0.666413,0.581699,0.490248,0.408176,0.556514,0.469428,0
0.505771,0.566117,0.346379,0.447799,0.541211,0.292106,0.398964,0.550896,0.598143,0
0.501808,0.563589,0.380616,0.382545,0.586735,0.506503,0.447951,0.511219,0.858299,0
0.412187,0.533451,0.260282,0.468869,0.539126,0.359611,0.377123,0.420034,0.527665,0
0.602705,0.492124,0.205824,0.551704,0.661248,0.709159,0.525936,0.626416,0.447243,0
0.421934,0.602263,0.681679,0.59278,0.520778,0.307375,0.51337,0.435527,0.538189,0
0.492739,0.507753,0.307087,0.513743,0.581699,0.432455,0.397707,0.354061,0.741404,0
0.732338,0.617735,0.153202,0.312043,0.682605,0.60616,0.630705,0.433325,0.347962,0
0.586179,0.491394,0.305864,0.494008,0.619641,0.264701,0.617946,0.535042,0.524697,0
0.520441,0.584029,0.501723,0.509195,0.588156,0.299232,0.320554,0.513437,0.61184,0
0.629235,0.648092,0.292575,0.358386,0.544837,0.294886,0.46509,0.515947,0.459265,0
0.474393,0.549354,0.452278,0.546045,0.538045,0.685904,0.421139,0.655621,0.613407,0
0.438939,0.544481,0.64585,0.74741,0.452114,0.241231,0.35967,0.967793,0.595743,0
0.421889,0.473207,0.4429,0.666714,0.519886,0.357307,0.449758,0.48576,0.634807,0
0.384989,0.420441,0.317296,0.684205,0.526197,0.542558,0.509438,0.388997,0.402283,0
0.357612,0.410111,0.441628,0.876023,0.457278,0.212942,0.550551,0.56758,0.418833,0
0.464546,0.420123,0.241014,0.570633,0.582629,0.587461,0.587382,0.300397,0.664244,0
0.686204,0.556455,0.305169,0.560711,0.581699,0.331236,0.350909,0.516243,0.558773,0
0.624445,0.478715,0.153899,0.48729,0.680351,0.248768,0.449234,0.689923,0.263262,0
0.5996,0.50858,0.168819,0.586165,0.635841,0.340569,0.428154,0.472262,0.261657,0
0.505771,0.57126,0.200896,0.425597,0.656056,0.750681,0.52922,0.419467,0.341793,0
0.274372,0.505948,0.322918,0.534086,0.581699,0.527841,0.429992,0.597457,0.413242,0
0.307241,0.36746,0.432125,0.695942,0.533375,0.322373,0.395239,0.432772,0.305847,0
0.706849,0.592045,0.211285,0.35954,0.581699,0.523998,0.366416,0.398451,0.446857,0
0.308531,0.502823,0.496577,0.740444,0.419946,0.176973,0.430984,0.532673,0.338811,0
0.593841,0.540878,0.180441,0.388166,0.668706,0.745695,0.239737,0.616221,0.536977,0
0.505771,0.47777,0.073293,0.418801,0.708456,0.587579,0.466943,0.551257,0.175853,0
0.243597,0.580233,0.800473,0.416081,0.491364,0.29734,0.528252,0.696899,0.429527,0
0.536496,0.488809,0.275504,0.438104,0.648426,0.555402,0.709801,0.486224,0.357801,0
0.498449,0.523869,0.42473,0.542265,0.534568,0.670032,0.660034,0.403762,0.658324,0
0.505771,0.424192,0.255928,0.849839,0.581699,0.313592,0.576229,0.482234,0.554165,0
0.532909,0.68971,0.408858,0.542109,0.532801,0.343089,0.142322,0.497365,0.472493,0
0.505771,0.517297,0.295643,0.590745,0.64034,0.46243,0.410046,0.508824,0.584909,0
0.515726,0.570696,0.251816,0.273247,0.581699,0.395012,0.496191,0.521256,0.557513,0
0.627918,0.507841,0.123628,0.470289,0.581699,0.355747,0.556413,0.626022,0.383867,0
0.505771,0.546996,0.429599,0.479136,0.581699,0.509234,0.3384,0.51104,0.510231,0
0.505771,0.622366,0.477988,0.70701,0.493614,0.428335,0.57883,0.562398,0.81804,0
0.646369,0.442803,0.066043,0.424957,0.73204,0.50789,0.535273,0.502865,0.257894,0
0.679653,0.550068,0.143858,0.440278,0.676733,0.559514,0.409085,0.446469,0.446755,0
0.438946,0.601191,0.329955,0.461193,0.581699,0.443978,0.816658,0.653576,0.499327,0
0.535301,0.590932,0.475018,0.436063,0.598944,0.460914,0.563874,0.682534,0.764361,0
0.506563,0.630267,0.47237,0.3744,0.581699,0.583319,0.665834,0.502096,0.693214,0
0.473184,0.452039,0.238996,0.526648,0.594952,0.39229,0.515561,0.469103,0.54523,0
0.430871,0.554926,0.534612,0.482546,0.633521,0.29465,0.456123,0.34592,0.373196,0
0.45315,0.425784,0.240572,0.810569,0.531614,0.272332,0.659452,0.516355,0.45254,0
0.505771,0.588824,0.444319,0.554232,0.553803,0.209351,0.450986,0.502998,0.50169,0
0.532796,0.617603,0.313852,0.335586,0.634673,0.546657,0.469743,0.458034,0.45208,0
0.454405,0.462879,0.418888,0.617752,0.582185,0.211078,0.320252,0.562782,0.421964,0
0.643685,0.658298,0.408615,0.502153,0.581699,0.347396,0.510281,0.532673,0.273642,0
0.533301,0.637495,0.294563,0.380008,0.581699,0.4805,0.453009,0.798237,0.119464,0
0.409987,0.516503,0.254563,0.607291,0.522845,0.425862,0.486559,0.654183,0.240607,0
0.556079,0.462318,0.214811,0.560924,0.581699,0.542001,0.445423,0.602955,0.653169,0
0.509899,0.484134,0.154446,0.419133,0.581699,0.382037,0.526912,0.543272,0.34457,0
0.628941,0.39827,0.072369,0.665069,0.647028,0.205988,0.277392,0.494091,0.70452,0
0.571645,0.504299,0.24113,0.574976,0.644052,0.664726,0.304722,0.537573,0.319068,0
0.511238,0.604218,0.384158,0.279637,0.610073,0.569049,0.507511,0.532673,0.705922,0
0.459098,0.564082,0.338213,0.405137,0.595353,0.264277,0.406476,0.603295,0.400609,0
0.437477,0.479331,0.453659,0.604589,0.496113,0.499578,0.44579,0.553938,0.412367,0
0.604136,0.657618,0.258441,0.296711,0.645696,0.3309,0.454472,0.662221,0.654996,0
0.4123,0.553926,0.451838,0.530743,0.538713,0.406624,0.511498,0.501235,0.307995,0
0.505771,0.629485,0.18457,0.444727,0.653883,0.393423,0.457828,0.475696,0.593527,0
0.482914,0.5249,0.308162,0.314092,0.613637,0.482761,0.424235,0.532673,0.653335,0
0.563932,0.461605,0.166556,0.572706,0.629307,0.508096,0.476395,0.487776,0.309025,0
0.612624,0.630117,0.403511,0.45954,0.604519,0.363392,0.526902,0.286744,0.466272,0
0.399766,0.65966,0.727863,0.481327,0.553926,0.424534,0.389342,0.321868,0.449264,0
0.581831,0.620289,0.509461,0.403573,0.584168,0.341319,0.486065,0.419251,0.540281,0
0.476107,0.634969,0.41045,0.361562,0.596709,0.239711,0.657805,0.583949,0.468613,0
0.464219,0.458254,0.384425,0.677656,0.571441,0.720594,0.451582,0.510748,0.54942,0
0.695421,0.588807,0.173647,0.450455,0.65106,0.468444,0.448722,0.376127,0.779582,0
0.66202,0.569217,0.230068,0.682436,0.566138,0.437156,0.372981,0.731481,0.719551,0
0.505771,0.484095,0.285433,0.459594,0.628341,0.465943,0.316514,0.25423,0.481967,0
0.718546,0.465896,0.080648,0.72972,0.581699,0.518485,0.546764,0.501911,0.447871,0
0.462563,0.471044,0.266178,0.762786,0.500664,0.498664,0.175331,0.522533,0.54001,0
0.435438,0.555744,0.272741,0.484556,0.581699,0.389915,0.262987,0.675951,0.284827,0
0.449846,0.60496,0.339898,0.540644,0.576149,0.441656,0.523838,0.520103,0.043591,0
0.377435,0.501551,0.430363,0.452489,0.565688,0.632495,0.582317,0.375853,0.633572,0
0.59071,0.524396,0.189936,0.628198,0.616388,0.391455,0.582209,0.687211,0.307521,0
0.431398,0.722766,0.643088,0.222542,0.581699,0.308647,0.422964,0.630093,0.521239,0
0.445949,0.448587,0.316619,0.619666,0.581699,0.579533,0.575418,0.428938,0.382462,0
0.586721,0.525025,0.205216,0.56235,0.609257,0.414779,0.427303,0.699649,0.365261,0
0.505771,0.573853,0.647257,0.337263,0.553805,0.573678,0.363021,0.440563,0.466392,0
0.505771,0.673172,0.439202,0.459408,0.480392,0.307131,0.558197,0.410073,0.535995,0
0.505771,0.627949,0.456671,0.596955,0.507491,0.41965,0.587444,0.698594,0.400751,0
0.702574,0.663929,0.259126,0.410749,0.581699,0.207357,0.466809,0.496514,0.523562,0
0.62284,0.625143,0.498474,0.54143,0.601989,0.525251,0.26633,0.401102,0.271833,0
0.500686,0.627983,0.300589,0.503302,0.581699,0.378612,0.483091,0.624893,0.316117,0
0.46376,0.454971,0.234863,0.578048,0.626093,0.823724,0.306975,0.456034,0.608389,0
0.55818,0.482115,0.282332,0.55867,0.634255,0.329675,0.463192,0.650196,0.274475,0
0.689469,0.572284,0.134423,0.359563,0.731587,0.369468,0.392588,0.431277,0.329471,0
0.571967,0.378336,0.140277,0.85319,0.581699,0.465151,0.391291,0.532673,0.718505,0
0.505771,0.446578,0.283063,0.623735,0.625775,0.337461,0.336749,0.591938,0.428561,0
0.505771,0.570575,0.549651,0.487371,0.581699,0.427722,0.449817,0.554215,0.452851,0
0.527631,0.515662,0.472887,0.631606,0.54702,0.483617,0.574596,0.454576,0.636549,0
0.392684,0.570386,0.478973,0.567681,0.552818,0.516492,0.554499,0.670733,0.68257,0
0.432702,0.664821,0.731411,0.476821,0.581699,0.377284,0.45356,0.616278,0.348317,0
0.505771,0.636178,0.386796,0.370282,0.581699,0.351965,0.523221,0.531652,0.526598,0
0.447782,0.501555,0.401413,0.498291,0.537533,0.617385,0.437888,0.554925,0.609661,0
0.505771,0.520498,0.333964,0.768962,0.483894,0.506382,0.269195,0.480972,0.665371,0
0.448927,0.541703,0.474379,0.640062,0.583693,0.687332,0.340839,0.532673,0.804176,0
0.645935,0.486538,0.130572,0.49699,0.581699,0.334116,0.289746,0.5231,0.48374,0
0.60879,0.559235,0.392182,0.537669,0.581699,0.446163,0.518798,0.507638,0.692452,0
0.505771,0.493423,0.323085,0.532281,0.59239,0.198236,0.302248,0.531885,0.516793,0
0.505771,0.529461,0.497647,0.510495,0.60561,0.435268,0.584169,0.398709,0.276621,0
0.287789,0.565685,0.689687,0.64176,0.428017,0.563511,0.442867,0.370317,0.516101,0
0.458051,0.569208,0.525609,0.379811,0.615621,0.363257,0.342722,0.73394,0.673879,0
0.448307,0.498818,0.465183,0.482774,0.585909,0.505275,0.344769,0.532673,0.546939,0
0.546348,0.511712,0.364331,0.646983,0.581699,0.370388,0.408219,0.588791,0.662419,0
0.396299,0.568852,0.651441,0.522523,0.540302,0.438025,0.505762,0.334363,0.471821,0
0.505771,0.613887,0.288137,0.490128,0.59488,0.448797,0.507337,0.669588,0.21837,0
0.533473,0.699742,0.597328,0.327547,0.597168,0.475166,0.532817,0.545298,0.365698,0
0.505771,0.47777,0.340366,0.668168,0.477087,0.414064,0.636035,0.741169,0.437645,0
0.565582,0.604858,0.385881,0.543161,0.602713,0.402093,0.666092,0.197298,0.487608,0
0.505771,0.523527,0.172558,0.47052,0.581699,0.543345,0.578224,0.345074,0.532572,0
0.505771,0.485842,0.234112,0.397891,0.581699,0.222623,0.281421,0.482522,0.512715,0
0.388089,0.559861,0.506289,0.54281,0.498324,0.472273,0.331115,0.70497,0.42082,0
0.595679,0.561386,0.344379,0.41222,0.581699,0.432741,0.509249,0.653708,0.638628,0
0.479694,0.535955,0.322558,0.578685,0.639742,0.402742,0.579428,0.545535,0.18775,0
0.435572,0.594947,0.640851,0.458723,0.581699,0.536247,0.367503,0.374731,0.593802,0
0.469775,0.394606,0.204431,0.73643,0.604349,0.415293,0.313496,0.629287,0.438895,0
0.334364,0.627672,0.630928,0.336635,0.504079,0.456488,0.334915,0.532673,0.505909,0
0.58223,0.624349,0.219661,0.270249,0.581699,0.487961,0.488555,0.64007,0.392131,0
0.505771,0.649697,0.21777,0.300485,0.69641,0.269113,0.266185,0.666279,0.172917,0
0.505771,0.628977,0.443282,0.325253,0.570965,0.493971,0.451599,0.532673,0.79723,0
0.404978,0.532109,0.324443,0.503022,0.581699,0.389093,0.616276,0.532673,0.405017,0
0.47321,0.500482,0.263349,0.71396,0.544971,0.485155,0.394177,0.326313,0.396426,0
0.590975,0.510456,0.177318,0.552555,0.617332,0.28446,0.502486,0.719677,0.355754,0
0.505771,0.705365,0.416985,0.304344,0.683296,0.513158,0.502148,0.386463,0.54003,0
0.505771,0.631821,0.191011,0.493546,0.581699,0.366795,0.412315,0.532673,0.346391,0
0.750691,0.603735,0.27035,0.490976,0.581699,0.401731,0.551377,0.543619,0.388557,0
0.369388,0.579808,0.727213,0.54293,0.486475,0.649503,0.403208,0.417807,0.2835,0
0.497443,0.530742,0.444742,0.769676,0.507611,0.212389,0.524508,0.627434,0.178802,0
0.467771,0.572146,0.217777,0.268152,0.581699,0.256153,0.514464,0.414664,0.519438,0
0.468246,0.535837,0.247668,0.187776,0.581699,0.445555,0.331619,0.532673,0.442813,0
0.645899,0.630734,0.227047,0.389343,0.675136,0.343396,0.414117,0.707097,0.548013,0
0.42647,0.563359,0.322321,0.588653,0.517535,0.403168,0.629584,0.587597,0.673715,0
0.448129,0.52384,0.243148,0.372661,0.627643,0.62379,0.390176,0.416671,0.578636,0
0.471715,0.600476,0.38163,0.489723,0.557775,0.435158,0.465629,0.265005,0.56891,0
0.510282,0.383777,0.184416,0.633478,0.569281,0.169621,0.34739,0.656978,0.442965,0
0.579746,0.584918,0.388547,0.560616,0.617627,0.445576,0.283996,0.540663,0.280714,0
0.547513,0.589663,0.372257,0.406411,0.609306,0.413136,0.212667,0.509596,0.237687,0
0.396811,0.387638,0.33137,0.727436,0.524018,0.303787,0.623321,0.603612,0.583503,0
0.538852,0.525233,0.392522,0.539283,0.588446,0.328654,0.6126,0.566683,0.426015,1
0.505771,0.620771,0.187233,0.56465,0.475614,0.47432,0.477613,0.40989,0.399205,1
0.524298,0.590103,0.205061,0.666559,0.513198,0.404335,0.390392,0.590412,0.466844,1
0.715371,0.590132,0.14355,0.535924,0.666311,0.250349,0.307014,0.745614,0.453119,1
0.505771,0.51257,0.3073,0.444793,0.581699,0.361247,0.496133,0.630863,0.240811,1
0.560462,0.676641,0.104254,0.508221,0.581699,0.636218,0.54928,0.541498,0.460507,1
0.505771,0.392626,0.849491,0.174212,0.670626,0.247469,0.458491,0.38549,0.104133,1
0.45244,0.544268,0.379926,0.451621,0.495838,0.381353,0.636867,0.498815,0.489474,1
0.686864,0.632328,0.200604,0.683955,0.581699,0.455352,0.444765,0.532673,0.282973,1
0.505771,0.504778,0.479031,0.607886,0.708548,0.760138,0.488995,0.524951,0.193852,1
0.635214,0.640737,0.371706,0.675541,0.413854,0.497958,0.28709,0.477351,0.410122,1
0.505771,0.538298,0.233847,0.701681,0.581699,0.189167,0.267602,0.395922,0.474005,1
0.581531,0.596181,0.249127,0.712205,0.581699,0.317641,0.505877,0.436085,0.548482,1
0.583265,0.565803,0.272617,0.408794,0.591574,0.605794,0.619212,0.483974,0.467029,1
0.352283,0.425238,0.506263,0.552601,0.723751,0.568405,0.489656,0.555818,0.679898,1
0.641273,0.549759,0.326809,0.564972,0.635416,0.543166,0.667507,0.51467,0.330875,1
0.526615,0.627349,0.283812,0.71032,0.412483,0.646421,0.483772,0.540048,0.327571,1
0.650524,0.562522,0.399916,0.408916,0.584373,0.499471,0.411392,0.374789,0.575182,1
0.297732,0.424094,0.386541,0.645152,0.581699,0.639988,0.446111,0.570401,0.256102,1
0.557636,0.613152,0.344437,0.459147,0.581699,0.599092,0.448108,0.668568,0.695389,1
0.478903,0.664999,0.154448,0.437706,0.267692,0.392191,0.407146,0.597485,0.372883,1
0.258798,0.397062,0.433742,0.365647,0.737868,0.362448,0.57456,0.509702,0.7412,1
0.569061,0.503901,0.346759,0.585556,0.752114,0.489408,0.448807,0.692702,0.693029,1
0.328258,0.571027,0.222803,0.471182,0.581699,0.787499,0.353292,0.565551,0.478147,1
0.505771,0.570336,0.206112,0.369406,0.555921,0.386696,0.553352,0.520101,0.493277,1
0.285321,0.478876,0.301469,0.478496,0.574227,0.62374,0.44892,0.532673,0.364747,1
0.636285,0.562328,0.547281,0.397642,0.573323,0.427908,0.634479,0.637931,0.603377,1
0.421338,0.54727,0.341957,0.686724,0.560333,0.228911,0.415439,0.596888,0.652262,1
0.679616,0.61044,0.266518,0.563277,0.547612,0.476402,0.285067,0.463463,0.225948,1
0.631605,0.662088,0.123442,0.795054,0.424475,0.329804,0.520727,0.62005,0.591176,1
0.551506,0.584009,0.27793,0.574041,0.44713,0.153062,0.366182,0.455506,0.335404,1
0.649244,0.585736,0.524037,0.512173,0.545636,0.468256,0.395197,0.717781,0.563455,1
0.125503,0.363267,0.676733,0.577392,0.70168,0.431857,0.330601,0.521392,0.286926,1
0.551799,0.604005,0.330686,0.390475,0.581699,0.274072,0.568294,0.469321,0.513013,1
0.480657,0.475391,0.519996,0.413381,0.581699,0.280298,0.482958,0.51428,0.692428,1
0.363245,0.457518,0.544021,0.444716,0.631397,0.570058,0.597546,0.500788,0.474897,1
0.681805,0.597095,0.408314,0.458072,0.532815,0.553953,0.683966,0.423189,0.668161,1
0.505771,0.490047,0.323913,0.636279,0.571336,0.257436,0.38821,0.641291,0.424184,1
0.446162,0.419983,0.428329,0.444436,0.852262,0.574395,0.81876,0.149577,0.67961,1
0.526889,0.440049,0.605359,0.300035,0.581699,0.450861,0.524942,0.507836,0.816289,1
0.557316,0.671903,0.230879,0.569466,0.581699,0.40536,0.50941,0.334767,0.550866,1
0.614055,0.561899,0.243859,0.539853,0.694977,0.234315,0.490754,0.617722,0.338191,1
0.459746,0.527994,0.316198,0.570558,0.528144,0.346574,0.409849,0.60928,0.371687,1
0.52382,0.675715,0.258522,0.612915,0.270467,0.385157,0.502451,0.657981,0.628221,1
0.438911,0.593226,0.322797,0.692886,0.40365,0.264251,0.574251,0.640069,0.30858,1
0.337571,0.466316,0.55733,0.436117,0.556402,0.455465,0.39985,0.532673,0.414938,1
0.385239,0.453833,0.45608,0.425649,0.692048,0.566676,0.587383,0.539792,0.601977,1
0.401773,0.610793,0.142971,0.696994,0.412726,0.278329,0.32493,0.582089,0.549346,1
0.412062,0.496797,0.506271,0.629419,0.6464,0.347311,0.315339,0.807172,0.310574,1
0.505771,0.538436,0.286151,0.563973,0.581699,0.578763,0.509014,0.43318,0.25064,1
0.375097,0.437054,0.56559,0.287364,0.704892,0.234415,0.315293,0.566723,0.495794,1
0.549199,0.586719,0.480207,0.740926,0.469697,0.304647,0.448995,0.575551,0.466756,1
0.262934,0.351237,0.433549,0.449572,0.581699,0.669221,0.43874,0.742817,0.461915,1
0.349835,0.441811,0.235703,0.623609,0.581699,0.447759,0.537132,0.658839,0.462179,1
0.41734,0.560817,0.224087,0.492518,0.459608,0.513517,0.612637,0.626252,0.574852,1
0.505771,0.529497,0.232348,0.413986,0.550164,0.437125,0.403139,0.746547,0.560563,1
0.35988,0.445891,0.419418,0.551996,0.581699,0.295365,0.424149,0.524035,0.465815,1
0.711518,0.626083,0.190766,0.632231,0.592231,0.379809,0.482475,0.488827,0.339683,1
0.529822,0.548705,0.395172,0.347451,0.455447,0.323309,0.621271,0.707909,0.367034,1
0.505771,0.409493,0.615287,0.688863,0.742198,0.455536,0.546015,0.167264,0.565699,1
0.364281,0.515916,0.352779,0.314376,0.581699,0.267598,0.480164,0.399537,0.701324,1
0.259512,0.4785,0.464045,0.383122,0.464279,0.558498,0.258866,0.621627,0.359155,1
0.632889,0.530705,0.390176,0.456447,0.581699,0.603682,0.29507,0.653903,0.610269,1
0.724138,0.705765,0.242469,0.651725,0.581699,0.725463,0.489318,0.499974,0.457935,1
0.707201,0.550077,0.261257,0.610148,0.713327,0.285973,0.696809,0.589342,0.178673,1
0.733459,0.619476,0.220553,0.560517,0.582842,0.279996,0.516152,0.681026,0.539741,1
0.01625,0.381216,0.635528,0.243483,0.439433,0.45736,0.42153,0.499624,0.396245,1
0.429804,0.575216,0.243593,0.565959,0.507639,0.437692,0.460604,0.426587,0.563001,1
0.507918,0.603769,0.405912,0.445905,0.332227,0.567014,0.543415,0.737803,0.805973,1
0.453592,0.51852,0.239457,0.405936,0.581699,0.464025,0.451478,0.544199,0.532281,1
0.580667,0.593747,0.37208,0.503092,0.560741,0.326138,0.448695,0.446669,0.637558,1
0.732344,0.619705,0.292875,0.650125,0.62645,0.270548,0.660636,0.666225,0.587982,1
0.390168,0.50882,0.185879,0.633083,0.581699,0.6176,0.227195,0.599258,0.574056,1
0.65996,0.598991,0.238213,0.533927,0.554295,0.688873,0.551001,0.53664,0.382297,1
0.505094,0.602802,0.323741,0.567534,0.457509,0.741129,0.249577,0.467909,0.537668,1
0.508278,0.530573,0.297883,0.357917,0.539888,0.32884,0.484352,0.435653,0.432222,1
0.5885,0.551929,0.405966,0.699493,0.630161,0.256846,0.63384,0.435487,0.310063,1
0.460447,0.568829,0.177048,0.571163,0.581699,0.413664,0.552706,0.532673,0.666848,1
0.440127,0.5634,0.195525,0.874489,0.554066,0.284829,0.478388,0.381831,0.482803,1
0.483725,0.542156,0.221149,0.721961,0.581699,0.290464,0.594089,0.548765,0.449472,1
0.504418,0.593632,0.180265,0.666486,0.485577,0.30082,0.563056,0.542252,0.474239,1
0.331304,0.489632,0.557267,0.45759,0.50694,0.45052,0.213059,0.532673,0.505679,1
0.548498,0.573277,0.117419,0.534628,0.581699,0.373785,0.219086,0.613655,0.429,1
0.581265,0.4762,0.549464,0.684923,0.581699,0.523888,0.385946,0.772073,0.244634,1
0.534386,0.50289,0.221009,0.33638,0.705462,0.248819,0.363491,0.531824,0.489691,1
0.577296,0.502374,0.461147,0.567782,0.718011,0.386764,0.407304,0.699662,0.363676,1
0.505771,0.591948,0.454177,0.437981,0.581699,0.446544,0.533622,0.517808,0.537038,1
0.550156,0.524881,0.292336,0.689047,0.668099,0.813573,0.466526,0.728445,0.554388,1
0.482197,0.579714,0.382917,0.574482,0.468093,0.463774,0.145609,0.244705,0.251035,1
0.505771,0.624879,0.362301,0.54454,0.533968,0.254968,0.405566,0.649185,0.604909,1
0.45171,0.502591,0.376215,0.433735,0.619937,0.384398,0.423881,0.484626,0.401779,1
0.385992,0.549833,0.184718,0.464457,0.581699,0.342649,0.370079,0.594458,0.328974,1
0.407134,0.406264,0.519757,0.383403,0.581699,0.560032,0.222529,0.447277,0.182719,1
0.54959,0.498398,0.366992,0.418713,0.581699,0.451421,0.255085,0.521147,0.804914,1
0.612959,0.504801,0.332803,0.279623,0.673612,0.354671,0.298828,0.535088,0.366506,1
0.706353,0.628262,0.321337,0.597609,0.559828,0.488457,0.487708,0.477558,0.434896,1
0.244746,0.389129,0.353309,0.361152,0.581699,0.447477,0.478519,0.452305,0.856127,1
0.597889,0.66745,0.242058,0.93365,0.581699,0.421101,0.491459,0.541651,0.332886,1
0.505771,0.571,0.212872,0.684293,0.579056,0.322114,0.244824,0.613071,0.532903,1
0.599321,0.608881,0.438563,0.485476,0.437063,0.458088,0.407725,0.370189,0.510561,1
0.541567,0.529049,0.350617,0.741252,0.718491,0.408015,0.532918,0.745332,0.639695,1
0.703575,0.585103,0.574133,0.626075,0.591453,0.491374,0.302879,0.406841,0.580797,1
0.373263,0.499175,0.261967,0.490419,0.581699,0.372734,0.215242,0.716479,0.424607,1
0.690261,0.674866,0.21168,0.766962,0.466081,0.254073,0.315694,0.500701,0.622413,1
0.505771,0.403824,0.425066,0.292506,0.581699,0.303157,0.528993,0.686343,0.673126,1
0.566829,0.578852,0.317486,0.645989,0.520817,0.310156,0.729047,0.511381,0.410219,1
0.637724,0.544871,0.452556,0.674487,0.581699,0.237906,0.739382,0.586337,0.503139,1
0.49431,0.58177,0.268755,0.757663,0.44716,0.525431,0.290111,0.629205,0.343394,1
0.752721,0.553907,0.222412,0.548964,0.796654,0.278609,0.569851,0.584062,0.448685,1
0.409236,0.418676,0.562385,0.415096,0.813245,0.203105,0.451756,0.616627,0.39826,1
0.381121,0.475923,0.618528,0.737419,0.608636,0.495907,0.484071,0.523994,0.467381,1
0.505771,0.470605,0.634687,0.401187,0.776919,0.529308,0.386977,0.493514,0.342521,1
0.48356,0.470602,0.562751,0.196796,0.683273,0.363783,0.577321,0.520279,0.417052,1
0.489166,0.536902,0.255929,0.461006,0.540478,0.389469,0.641277,0.605659,0.4315,1
0.505771,0.666424,0.205821,0.518592,0.612014,0.36903,0.422116,0.650796,0.351351,1
0.505771,0.571858,0.439092,0.551576,0.499748,0.398731,0.625356,0.492837,0.595495,1
0.505771,0.39331,0.458144,0.627376,0.748749,0.419439,0.635199,0.421075,0.658005,1
0.613514,0.67574,0.11398,0.516736,0.397611,0.135342,0.260014,0.334186,0.489969,1
0.605261,0.491727,0.592575,0.453438,0.581699,0.407136,0.461891,0.454294,0.385293,1
0.542239,0.550699,0.411498,0.592768,0.538619,0.410874,0.686545,0.385627,0.579533,1
0.581269,0.567408,0.391614,0.508181,0.502322,0.505986,0.652604,0.243144,0.671928,1
0.382326,0.373835,0.4511,0.400161,0.900315,0.421326,0.534272,0.629852,0.629455,1
0.571292,0.702118,0.15251,0.742884,0.285701,0.432622,0.49006,0.317246,0.222452,1
0.849863,0.655444,0.130949,0.747369,0.618269,0.55728,0.509075,0.509415,0.297782,1
0.53161,0.483972,0.293929,0.643855,0.784932,0.670287,0.481545,0.462588,0.140128,1
0.3672,0.587346,0.346215,0.318119,0.288486,0.345214,0,0.697695,0.518483,1
0.505771,0.707244,0.155361,0.473437,0.235353,0.298174,0.314454,0.561174,0.600624,1
0.49628,0.624474,0.164459,0.787693,0.581699,0.475062,0.460299,0.490113,0.42259,1
0.687293,0.49141,0.492335,0.415265,0.83358,0.685216,0.593859,0.366445,0.477514,1
0.382944,0.449355,0.400432,0.300031,0.675552,0.540649,0.495122,0.262706,0.068544,1
0.35068,0.503311,0.218888,0.701859,0.581699,0.488028,0.381588,0.722787,0.441578,1
0.455458,0.488549,0.537314,0.391353,0.662875,0.295095,0.20661,0.531288,0.747598,1
0.281438,0.419815,0.42016,0.296402,0.690188,0.535974,0.595851,0.510087,0.383438,1
0.494059,0.592794,0.475199,0.443022,0.350059,0.368762,0.409663,0.619346,0.595315,1
0.653326,0.648047,0.106172,0.695872,0.539799,0.486283,0.45634,0.64767,0.332933,1
0.733458,0.64435,0.235993,0.498696,0.487923,0.301031,0.435011,0.513337,0.708993,1
0.627691,0.67115,0.110238,0.700935,0.581699,0.409439,0.377449,0.532673,0.385696,1
0.526341,0.601269,0.297688,0.621561,0.469689,0.550463,0.319735,0.763412,0.446943,1
0.668051,0.580478,0.381531,0.481637,0.617891,0.418129,0.336655,0.532673,0.368362,1
0.670939,0.607995,0.332828,0.762234,0.574776,0.464434,0.328683,0.435568,0.607994,1
0.521184,0.544865,0.364727,0.699507,0.552364,0.300038,0.147114,0.663612,0.610544,1
0.635776,0.594413,0.152221,0.666244,0.623349,0.26631,0.61563,0.548386,0.580214,1
0.579089,0.655586,0.296257,0.456669,0.335035,0.329486,0.47561,0.816257,0.612265,1
0.557455,0.61388,0.22723,0.446821,0.432792,0.501398,0.496075,0.503988,0.496418,1
0.333296,0.449258,0.58055,0.355567,0.527266,0.560312,0.460177,0.455714,0.58742,1
0.778934,0.578808,0.259057,0.613266,0.683701,0.688676,0.588386,0.64912,0.429243,1
0.338539,0.416461,0.44158,0.196519,0.692596,0.447197,0.495421,0.522085,0.282161,1
0.704945,0.639629,0.479897,0.576511,0.432117,0.305492,0.459872,0.675598,0.62145,1
0.505771,0.490222,0.316134,0.759012,0.839952,0.353247,0.662182,0.615736,0.544376,1
0.416253,0.520773,0.419372,0.350046,0.531276,0.33028,0.619228,0.388766,0.326929,1
0.070708,0.311162,0.272581,0.699905,0.895876,0.246228,0.315329,0.347556,0.70157,1
0.505771,0.681226,0.166204,0.56779,0.581699,0.241946,0.233201,0.647421,0.463322,1
0.677559,0.621368,0.246886,0.640506,0.530725,0.433916,0.51422,0.519933,0.33487,1
0.459694,0.60681,0.148473,0.755039,0.410371,0.571577,0.410953,0.573499,0.657088,1
0.454678,0.571741,0.11033,0.857208,0.557703,0.332417,0.542255,0.596896,0.694917,1
0.505771,0.562378,0.385958,0.405455,0.796198,0.407677,0.444355,0.4769,0.721567,1
0.389444,0.550602,0.231928,0.57434,0.480976,0.503006,0.452893,0.767213,0.707229,1
0.505771,0.611315,0.353519,0.556205,0.439609,0.320389,0.351847,0.614957,0.685642,1
0.388105,0.472978,0.510634,0.331282,0.619541,0.539995,0.531281,0.467936,0.268708,1
0.52677,0.617597,0.196449,0.758219,0.581699,0.31039,0.539989,0.754867,0.405042,1
0.505771,0.465289,0.420861,0.460064,0.617063,0.345902,0.438196,0.404446,0.283871,0
0.373353,0.471133,0.460997,0.465168,0.588849,0.256888,0.623107,0.497622,0.153063,0
0.328158,0.501287,0.454143,0.501736,0.641379,0.348407,0.451488,0.59904,0.655683,0
0.484581,0.598531,0.205343,0.551988,0.581699,0.256269,0.331869,0.720733,0.677977,0
0.457161,0.452922,0.256383,0.358826,0.600496,0.444029,0.340062,0.467524,0.588295,0
0.48853,0.433219,0.462805,0.539086,0.581699,0.488376,0.351676,0.590021,0.265556,0
0.49299,0.425444,0.330371,0.376668,0.603746,0.501754,0.312744,0.526982,0.491191,0
0.505771,0.522767,0.363529,0.613249,0.581699,0.294602,0.576525,0.616815,0.72042,0
0.563489,0.656734,0.254553,0.629115,0.527918,0.423494,0.591202,0.451739,0.412275,0
0.394831,0.620573,0.357512,0.476265,0.581699,0.404617,0.400005,0.353642,0.5939,0
0.463743,0.680043,0.300236,0.647256,0.491807,0.455743,0.456583,0.526511,0.554622,0
0.477479,0.53106,0.555546,0.745564,0.612263,0.553599,0.253592,0.534807,0.48793,0
0.505771,0.540105,0.390554,0.586391,0.63524,0.432426,0.309873,0.589865,0.677762,0
0.444548,0.691541,0.362895,0.703309,0.581699,0.512682,0.453171,0.649318,0.466927,0
0.339903,0.566233,0.382262,0.572613,0.554169,0.187859,0.607853,0.691038,0.558803,0
0.531488,0.493053,0.278114,0.333326,0.586956,0.474788,0.287391,0.647394,0.197834,0
0.575349,0.556822,0.202297,0.544644,0.583591,0.463864,0.488471,0.571661,0.390262,0
0.504416,0.611241,0.405062,0.68778,0.546752,0.437068,0.411894,0.51344,0.538669,0
0.505771,0.606858,0.20269,0.527647,0.492831,0.241212,0.507043,0.74602,0.672316,0
0.543686,0.634114,0.406243,0.642593,0.451518,0.566192,0.615853,0.548891,0.269098,0
0.335103,0.556626,0.523121,0.643417,0.669677,0.586452,0.390975,0.683814,0.242162,0
0.576012,0.58909,0.13777,0.644971,0.64325,0.27518,0.633,0.855942,0.339587,0
0.30664,0.59986,0.494421,0.648009,0.580866,0.352252,0.520304,0.316704,0.256178,0
0.56184,0.498676,0.259843,0.545545,0.581699,0.567324,0.340722,0.708337,0.432713,0
0.648974,0.69204,0.142526,0.741153,0.557068,0.349497,0.651178,0.793049,0.206848,0
0.470889,0.707487,0.148758,0.544124,0.522155,0.453114,0.453153,0.569453,0.304562,0
0.502344,0.440312,0.476951,0.39441,0.581699,0.595072,0.724875,0.471668,0.412814,0
0.642166,0.538199,0.384318,0.56018,0.624135,0.647112,0.500168,0.609838,0.575637,0
0.611516,0.572867,0.268698,0.611139,0.581699,0.290906,0.639584,0.546412,0.257873,0
0.481368,0.395553,0.5029,0.484625,0.665225,0.426338,0.362201,0.564887,0.711757,0
0.505771,0.587594,0.336698,0.488405,0.525166,0.675202,0.603634,0.319662,0.52718,0
0.463759,0.600791,0.558122,0.680168,0.586006,0.230426,0.342349,0.568635,0.364677,0
0.482366,0.524321,0.293927,0.279372,0.474949,0.364179,0.28694,0.742172,0.690587,0
0.359955,0.346142,0.665094,0.541647,0.581699,0.359038,0.560298,0.418289,0.663154,0
0.592596,0.54686,0.281548,0.619249,0.683437,0.197324,0.606364,0.351476,0.746986,0
0.389686,0.380696,0.612405,0.425173,0.581699,0.283171,0.467496,0.327529,0.572197,0
0.565585,0.641005,0.323304,0.67763,0.492553,0.420395,0.765818,0.584039,0.62662,0
0.358432,0.53406,0.443241,0.454284,0.581699,0.230816,0.314463,0.68916,0.677851,0
0.46396,0.742056,0.532863,0.636188,0.581699,0.259787,0.293257,0.647589,0.366888,0
0.505771,0.564464,0.457489,0.52639,0.612231,0.462032,0.673386,0.426183,0.568369,0
0.627369,0.61881,0.260444,0.550957,0.582489,0.362918,0.542319,0.376134,0.533964,0
0.505771,0.498087,0.462648,0.485169,0.573017,0.349768,0.338866,0.497127,0.369308,0
0.582833,0.61016,0.274969,0.658914,0.540445,0.486234,0.459484,0.483813,0.284968,0
0.548957,0.663435,0.114992,0.597993,0.57527,0.544482,0.461071,0.594917,0.516012,0
0.55443,0.457774,0.250015,0.365297,0.572084,0.593078,0.342824,0.703733,0.34152,0
0.514852,0.567947,0.298375,0.407504,0.518615,0.447712,0.413586,0.248677,0.615534,0
0.499074,0.443593,0.314445,0.365221,0.673291,0.427006,0.579107,0.390584,0.571972,0
0.335157,0.631559,0.392253,0.705382,0.507666,0.393572,0.399167,0.480806,0.483836,0
0.505771,0.62495,0.156303,0.638877,0.513702,0.37653,0.391907,0.575096,0.327743,0
0.289959,0.55479,0.41784,0.62545,0.581699,0.406873,0.340415,0.532673,0.544587,0
0.599282,0.602969,0.284926,0.625974,0.581699,0.506919,0.65522,0.568638,0.400778,0
0.763967,0.627581,0.168305,0.482929,0.474323,0.407045,0.481793,0.470526,0.51141,0
0.485121,0.465963,0.347206,0.528315,0.626344,0.429749,0.396819,0.442277,0.258535,0
0.710997,0.672914,0.056683,0.753648,0.581699,0.27699,0.618528,0.662905,0.492136,0
0.505771,0.622268,0.156231,0.525454,0.567349,0.358238,0.511416,0.459104,0.451363,0
0.320699,0.510787,0.239468,0.636715,0.696607,0.589484,0.345846,0.522827,0.439823,0
0.572919,0.465888,0.35199,0.558534,0.63626,0.432235,0.10601,0.580611,0.376654,0
0.363574,0.460058,0.55451,0.500189,0.703529,0.603081,0.571171,0.387859,0.640738,0
0.46192,0.605405,0.238517,0.524692,0.498744,0.215914,0.382407,0.532673,0.370234,0
0.47875,0.584427,0.471812,0.5227,0.493551,0.315574,0.322398,0.431128,0.532795,0
0.411872,0.479305,0.44953,0.457686,0.581699,0.620406,0.407208,0.72422,0.571378,0
0.469364,0.581479,0.378482,0.464047,0.525088,0.553316,0.408996,0.605853,0.587247,0
0.607801,0.554504,0.16856,0.472841,0.506771,0.706011,0.367777,0.511833,0.202286,0
0.425284,0.504277,0.524086,0.633087,0.62129,0.410254,0.476587,0.553048,0.49573,0
0.385943,0.501326,0.446407,0.618833,0.581699,0.709782,0.299772,0.508344,0.45783,0
0.399781,0.418194,0.387636,0.55613,0.581699,0.618782,0.650373,0.439944,0.388876,0
0.759494,0.547517,0.207496,0.530998,0.550018,0.595504,0.556406,0.576317,0.429657,0
0.351201,0.417222,0.369555,0.287472,0.65787,0.630031,0.359392,0.532673,0.451258,0
0.513078,0.554736,0.21641,0.597268,0.651454,0.762526,0.343929,0.574377,0.445555,0
0.423103,0.43609,0.420821,0.465292,0.628871,0.507772,0.519941,0.426602,0.502432,0
0.526931,0.462749,0.246609,0.453452,0.68747,0.695938,0.372251,0.628265,0.582654,0
0.559535,0.629418,0.460019,0.705976,0.531983,0.490783,0.50318,0.456714,0.781023,0
0.338983,0.503718,0.539072,0.66446,0.685076,0.201939,0.482158,0.387089,0.42525,0
0.646845,0.540617,0.326819,0.429479,0.482354,0.281321,0.406653,0.677753,0.757594,0
0.392297,0.467331,0.428546,0.604378,0.675068,0.558626,0.207272,0.475887,0.348673,0
0.320537,0.549959,0.599931,0.735778,0.593839,0.36562,0.226953,0.607898,0.248766,0
0.501942,0.500155,0.503528,0.645673,0.563765,0.253184,0.298161,0.421692,0.737955,0
0.728617,0.488402,0.126346,0.408258,0.593078,0.192559,0.431798,0.404256,0.704239,0
0.484591,0.337096,0.2832,0.292206,0.581699,0.336968,0.323151,0.781661,0.490744,0
0.577173,0.433309,0.292502,0.510024,0.581699,0.733491,0.540528,0.444972,0.495524,0
0.505771,0.522018,0.224877,0.480524,0.615175,0.424046,0.370239,0.527768,0.513771,0
0.524641,0.489223,0.08815,0.501945,0.695601,0.312491,0.700533,0.590214,0.372237,0
0.423124,0.555436,0.541571,0.554054,0.581699,0.382025,0.444363,0.508879,0.460287,0
0.591814,0.540894,0.308275,0.548404,0.607722,0.362777,0.457911,0.587764,0.75411,0
0.424966,0.409916,0.272187,0.445707,0.677011,0.471321,0.542527,0.499994,0.495783,0
0.505771,0.525116,0.555608,0.674063,0.666058,0.512885,0.525106,0.406206,0.292746,0
0.505771,0.611425,0.585327,0.757613,0.573413,0.658597,0.46505,0.657395,0.280608,0
0.378327,0.626238,0.643877,0.695168,0.549479,0.370554,0.321201,0.471057,0.466718,0
0.734433,0.548127,0.127858,0.406764,0.576705,0.676033,0.515774,0.227423,0.590456,0
0.501203,0.435015,0.290513,0.434525,0.663361,0.507119,0.325387,0.359105,0.501304,0
0.490829,0.544394,0.315847,0.623041,0.642237,0.346281,0.614587,0.526977,0.516239,0
0.505771,0.604807,0.142267,0.543716,0.581699,0.554892,0.282886,0.299188,0.766638,0
0.591005,0.538178,0.291764,0.553433,0.671553,0.328253,0.566909,0.532673,0.212786,0
0.588491,0.54692,0.182746,0.388023,0.512255,0.383976,0.423116,0.652754,0.252356,0
0.413654,0.518694,0.327837,0.465469,0.619381,0.635426,0.594132,0.678637,0.501954,0
0.439526,0.688115,0.356796,0.605753,0.503477,0.530926,0.569933,0.465433,0.487869,0
0.521647,0.542348,0.356812,0.394575,0.500586,0.472358,0.477608,0.575788,0.509524,0
0.542334,0.470267,0.23957,0.445334,0.625629,0.303922,0.573255,0.335685,0.357615,0
0.48458,0.515707,0.203853,0.437086,0.581699,0.52255,0.705226,0.615628,0.495781,0
0.40049,0.595161,0.527081,0.505749,0.581699,0.463231,0.717508,0.417655,0.49555,0
0.505771,0.638434,0.590577,0.706694,0.58076,0.33651,0.548678,0.518884,0.44768,0
0.351575,0.54356,0.626763,0.688294,0.722207,0.307745,0.418618,0.495908,0.159141,0
0.407199,0.502337,0.444029,0.56447,0.581699,0.311305,0.493848,0.452089,0.478,0
0.505771,0.609907,0.410757,0.425455,0.389483,0.43344,0.369903,0.571363,0.318397,0
0.762718,0.439852,0.110751,0.353354,0.581699,0.255614,0.540103,0.372657,0.540415,0
0.543009,0.551054,0.181019,0.512593,0.499861,0.050424,0.60252,0.503875,0.425198,0
0.631877,0.511379,0.285915,0.446643,0.534472,0.416032,0.571473,0.482822,0.278888,0
0.482264,0.565734,0.426966,0.627277,0.604765,0.349661,0.663882,0.46694,0.436001,0
0.505771,0.365158,0.21799,0.421225,0.696014,0.308166,0.424479,0.583777,0.410208,0
0.505771,0.560944,0.200277,0.569513,0.581699,0.381912,0.404146,0.532673,0.565176,0
0.363444,0.408175,0.637115,0.446468,0.700562,0.382387,0.689257,0.55127,0.217549,0
0.496779,0.407463,0.354222,0.324219,0.591617,0.526554,0.324272,0.633006,0.325149,0
0.641701,0.570261,0.243617,0.649228,0.581699,0.411667,0.475815,0.553009,0.188254,0
0.679976,0.568203,0.278087,0.454174,0.516195,0.374594,0.569402,0.353194,0.481103,0
0.335742,0.536544,0.572939,0.592335,0.58597,0.625995,0.29321,0.519084,0.384183,0
0.741867,0.556633,0.289978,0.43002,0.596537,0.270689,0.464345,0.498278,0.656332,0
0.410466,0.493448,0.579782,0.44731,0.564036,0.301981,0.396508,0.566176,0.445901,0
0.505771,0.527902,0.177396,0.360307,0.556083,0.264877,0.496727,0.63707,0.614317,0
0.505771,0.73097,0.409353,0.670821,0.476723,0.526989,0.457558,0.55464,0.470991,0
0.772235,0.586419,0.189263,0.766267,0.627568,0.370201,0.508616,0.529704,0.560821,0
0.640488,0.65747,0.269987,0.531184,0.544146,0.480788,0.398467,0.621377,0.416781,0
0.505771,0.598559,0.088309,0.492825,0.579644,0.153641,0.608525,0.722672,0.156247,0
0.4892,0.570857,0.332226,0.737613,0.734841,0.363996,0.386925,0.395207,0.317649,0
0.632979,0.555621,0.245068,0.446045,0.523043,0.59506,0.443695,0.560858,0.402554,0
0.303785,0.371816,0.331278,0.228504,0.493763,0.429529,0.532067,0.547313,0.404292,0
0.480702,0.660069,0.374232,0.734353,0.545863,0.595167,0.419174,0.547728,0.619081,0
0.423181,0.504868,0.723329,0.49019,0.604032,0.160814,0.404525,0.476373,0.52455,0
0.484563,0.53038,0.219291,0.377257,0.553158,0.518259,0.49257,0.532673,0.340333,0
0.527921,0.623536,0.414623,0.658194,0.581699,0.649765,0.595033,0.485636,0.543606,0
0.462154,0.469018,0.497048,0.316332,0.555802,0.600543,0.55227,0.677919,0.316769,0
0.495028,0.517815,0.418005,0.462415,0.5739,0.525049,0.454003,0.566666,0.425373,0
0.66446,0.686087,0.080611,0.622184,0.581699,0.325979,0.408582,0.140864,0.420871,0
0.530143,0.627343,0.253697,0.689285,0.542319,0.492802,0.566347,0.645222,0.407187,0
0.470219,0.420504,0.2899,0.484547,0.581699,0.352606,0.608986,0.352083,0.439187,0
0.443174,0.595625,0.576603,0.460653,0.525895,0.648725,0.247543,0.45117,0.502327,0
0.647616,0.565675,0.367606,0.439204,0.547072,0.550272,0.619449,0.613965,0.492611,0
0.336651,0.587286,0.324263,0.488384,0.491337,0.301974,0.45302,0.721332,0.467642,0
0.755813,0.603371,0.180236,0.572751,0.486278,0.552034,0.604264,0.670177,0.286811,0
0.541019,0.654907,0.137122,0.546643,0.581699,0.441011,0.346319,0.439129,0.422908,0
0.438485,0.402587,0.325238,0.505686,0.634121,0.336376,0.429801,0.648968,0.610189,0
0.37688,0.504007,0.685364,0.509666,0.542106,0.228236,0.642315,0.573258,0.460017,0
0.484063,0.515092,0.317584,0.628916,0.700102,0.417714,0.483968,0.489303,0.353954,0
0.517101,0.596466,0.223144,0.614644,0.613708,0.547221,0.506378,0.259671,0.582686,0
0.46802,0.519114,0.246962,0.514802,0.645733,0.300039,0.486445,0.532673,0.376893,0
0.600626,0.592558,0.44891,0.491758,0.462141,0.654178,0.388691,0.538072,0.174474,0
0.570457,0.560995,0.330451,0.41781,0.581699,0.517934,0.385379,0.349692,0.636184,0
0.526208,0.49915,0.227084,0.409579,0.55555,0.271873,0.49938,0.399629,0.302764,0
0.433053,0.643505,0.419031,0.71322,0.581699,0.35657,0.416657,0.68645,0.551986,0
0.561177,0.570751,0.086989,0.427765,0.609451,0.438149,0.488418,0.448018,0.583226,0
0.368457,0.514573,0.570803,0.499735,0.601856,0.262483,0.410337,0.49169,0.604245,0
0.505771,0.544589,0.281063,0.459843,0.581699,0.392634,0.555183,0.553545,0.379716,0
0.457077,0.662319,0.372969,0.795761,0.53141,0.474751,0.43776,0.532673,0.221316,0
0.528161,0.582284,0.485942,0.584289,0.581699,0.368995,0.420438,0.641256,0.531895,0
0.317418,0.699099,0.389932,0.737096,0.593847,0.616384,0.370789,0.554092,0.678412,0
0.589082,0.466027,0.157505,0.36184,0.55516,0.211095,0.339866,0.573576,0.471161,0
0.350154,0.606517,0.459031,0.748622,0.591248,0.338462,0.509699,0.493689,0.387417,0
0.490224,0.533765,0.382384,0.613809,0.618605,0.450716,0.477385,0.716273,0.542594,0
0.476395,0.519852,0.261471,0.471309,0.5549,0.352818,0.216555,0.695288,0.097346,0
0.542548,0.57921,0.216155,0.457195,0.565887,0.473827,0.483166,0.708104,0.369331,0
0.583077,0.492324,0.328615,0.444349,0.579735,0.513785,0.61487,0.396447,0.347371,0
0.633591,0.529351,0.271453,0.377934,0.537892,0.304248,0.644913,0.47112,0.516684,0
0.626405,0.609146,0.22409,0.56333,0.550518,0.327936,0.640582,0.438231,0.439917,0
0.338385,0.609729,0.498525,0.659875,0.581699,0.230878,0.339858,0.504425,0.454413,0
0.556491,0.540628,0.389786,0.503615,0.628119,0.507179,0.503575,0.355394,0.307471,0
0.505771,0.692721,0.429712,0.651111,0.518573,0.328403,0.366281,0.734219,0.338678,0
0.434808,0.606199,0.185652,0.538546,0.581699,0.284315,0.422694,0.794638,0.41911,0
0.546521,0.556001,0.186815,0.492859,0.625671,0.418538,0.63846,0.423252,0.341849,0
0.340821,0.554757,0.782861,0.689882,0.600261,0.226357,0.634802,0.510507,0.470216,0
0.505771,0.519415,0.436612,0.336373,0.492621,0.57322,0.536358,0.514059,0.378677,0
0.385147,0.546208,0.321469,0.586397,0.624809,0.416764,0.475728,0.647647,0.289076,0
0.391235,0.428029,0.471629,0.404776,0.687136,0.537354,0.57721,0.644942,0.927858,0
0.454583,0.529848,0.371671,0.494923,0.581699,0.438413,0.53915,0.517912,0.626661,0
0.505771,0.650485,0.650541,0.645222,0.581699,0.624521,0.442328,0.532673,0.645373,0
0.596282,0.666581,0.216928,0.569206,0.524588,0.604864,0.630801,0.464984,0.523324,0
0.47257,0.535194,0.338194,0.452788,0.581699,0.352602,0.286758,0.329378,0.602327,0
0.593741,0.566983,0.13802,0.55611,0.581699,0.632865,0.508444,0.655276,0.29081,0
0.488302,0.432769,0.393592,0.509529,0.579159,0.366036,0.529003,0.700653,0.419099,0
0.456105,0.667616,0.434044,0.659284,0.581699,0.420705,0.550311,0.588362,0.611026,0
0.463574,0.573501,0.313209,0.590391,0.680512,0.521636,0.521268,0.456297,0.185457,0
0.505771,0.685276,0.403122,0.709093,0.487709,0.52036,0.43379,0.37206,0.724945,0
0.474918,0.486979,0.499334,0.439082,0.61053,0.133285,0.596109,0.280364,0.638595,0
0.505771,0.593226,0.342386,0.568836,0.581699,0.684189,0.494669,0.726213,0.523266,0
0.66597,0.599505,0.253344,0.403058,0.476801,0.38172,0.322692,0.598857,0.294318,0
0.327283,0.502974,0.551276,0.470168,0.532774,0.393276,0.670492,0.499629,0.576708,0
0.563203,0.65947,0.351571,0.591083,0.528903,0.327506,0.36151,0.398065,0.601558,0
0.440631,0.692327,0.402365,0.576752,0.399085,0.526685,0.762145,0.636297,0.564523,0
0.516489,0.472059,0.288045,0.427885,0.609587,0.325616,0.678657,0.475127,0.78881,0
0.505771,0.68037,0.058778,0.515595,0.448157,0.650528,0.659694,0.682366,0.495622,0
0.620936,0.498168,0.212833,0.48296,0.623681,0.663594,0.451278,0.575975,0.273818,0
0.505771,0.534561,0.536239,0.720375,0.581699,0.184155,0.314785,0.577365,0.336865,0
0.342676,0.518271,0.344124,0.456869,0.561866,0.307685,0.364514,0.512121,0.489413,0
0.665655,0.550983,0.229423,0.581835,0.673384,0.274469,0.49867,0.508295,0.506567,0
0.541549,0.483573,0.191578,0.362059,0.565794,0.763125,0.435297,0.312164,0.568592,0
0.382015,0.671897,0.188437,0.584288,0.522644,0.332996,0.374547,0.527811,0.351894,0
0.391991,0.477979,0.325764,0.380386,0.500707,0.575536,0.398026,0.471545,0.524405,0
0.505771,0.57726,0.663143,0.662361,0.543843,0.501117,0.472165,0.573676,0.763118,0
0.593997,0.630552,0.259454,0.714192,0.622609,0.559911,0.764741,0.605434,0.247724,0
0.610791,0.612945,0.469383,0.515443,0.472185,0.576036,0.536489,0.641895,0.490902,0
0.429511,0.621749,0.348943,0.700106,0.545885,0.459542,0.480626,0.500602,0.379206,0
0.410291,0.458551,0.46089,0.521748,0.643301,0.270308,0.563034,0.524974,0.325516,0
0.372785,0.425689,0.438164,0.488494,0.581699,0.420978,0.454823,0.593714,0.554725,0
0.505771,0.700049,0.420953,0.799968,0.581699,0.463854,0.435765,0.645214,0.360816,0
0.532765,0.581644,0.167345,0.670734,0.581699,0.456204,0.633153,0.350149,0.281354,0
0.787706,0.656134,0.210211,0.560833,0.540731,0.340553,0.223519,0.387719,0.515957,0
0.480684,0.706339,0.289865,0.740247,0.548916,0.453566,0.435679,0.498462,0.482787,0
0.296444,0.462454,0.675935,0.408444,0.581699,0.42627,0.395939,0.69726,0.388045,0
0.511386,0.451171,0.47013,0.427796,0.648605,0.610365,0.609848,0.63569,0.34126,0
0.505771,0.681868,0.223393,0.641835,0.581699,0.463294,0.457278,0.413487,0.418349,0
0.44355,0.442111,0.365969,0.354083,0.56353,0.643153,0.567629,0.411867,0.462047,0
0.505771,0.476422,0.166976,0.562117,0.639313,0.325736,0.477738,0.459699,0.506033,0
0.686324,0.667079,0.069351,0.487345,0.488373,0.257792,0.367418,0.631421,0.301153,0
0.383993,0.385506,0.928425,0.590379,0.581699,0.546297,0.494867,0.462227,0.515073,0
0.621223,0.431716,0.450382,0.391305,0.691031,0.370847,0.442478,0.602672,0.516273,0
0.553495,0.549204,0.305699,0.549815,0.533534,0.326862,0.298239,0.523386,0.318953,0
0.508423,0.611858,0.324214,0.724356,0.625187,0.263156,0.587706,0.675755,0.522512,0
0.593574,0.59946,0.666848,0.57545,0.489317,0.321666,0.412715,0.565846,0.628812,0
0.394593,0.397946,0.425231,0.469087,0.712405,0.513865,0.56334,0.408631,0.488446,0
0.728673,0.520026,0.141167,0.355998,0.504204,0.262119,0.625496,0.550125,0.475411,0
0.383438,0.52053,0.530296,0.606406,0.631644,0.444485,0.374852,0.869391,0.104773,0
0.638414,0.364482,0.168152,0.261626,0.687941,0.52257,0.566312,0.490176,0.261152,0
0.580301,0.580639,0.429647,0.641005,0.537054,0.437419,0.301747,0.513104,0.619107,0
0.513212,0.557315,0.409046,0.380797,0.439577,0.354157,0.39186,0.181715,0.418871,0
0.392821,0.663337,0.222999,0.725446,0.633707,0.455852,0.48049,0.532673,0.831315,0
0.505771,0.758968,0.140936,0.732632,0.466184,0.250961,0.561243,0.583713,0.363335,0
0.379984,0.568642,0.362358,0.602862,0.528441,0.380575,0.451114,0.668657,0.279019,0
0.454937,0.68159,0.560466,0.690328,0.472546,0.307652,0.268708,0.474942,0.156155,0
0.480964,0.544559,0.445102,0.44486,0.496939,0.378067,0.658775,0.436247,0.326717,0
0.491644,0.591494,0.229492,0.539466,0.533345,0.680134,0.527139,0.566905,0.501473,0
0.572394,0.644649,0.329272,0.585941,0.510168,0.350664,0.400997,0.633034,0.566251,0
0.590861,0.568726,0.392005,0.633769,0.579184,0.558182,0.496452,0.570206,0.697714,0
0.624785,0.366212,0.358811,0.399779,0.68281,0.395022,0.524601,0.579465,0.626533,0
0.582489,0.561806,0.41539,0.571403,0.676715,0.728128,0.367925,0.581256,0.424717,0
0.646123,0.633867,0.369554,0.568128,0.466046,0.659715,0.504122,0.355481,0.522537,0
0.637315,0.58068,0.212966,0.642547,0.650353,0.501968,0.516963,0.864373,0.497585,0
0.425807,0.488505,0.387565,0.456892,0.670327,0.675066,0.214239,0.465973,0.656,0
0.505771,0.573129,0.324974,0.539834,0.53484,0.660076,0.833427,0.547648,0.41631,0
0.584601,0.432383,0.289361,0.288607,0.576524,0.317827,0.396009,0.450849,0.595402,0
0.545461,0.694631,0.292504,0.840276,0.632214,0.583151,0.246646,0.445113,0.356004,0
0.555385,0.528289,0.252577,0.58937,0.554884,0.210314,0.428282,0.716474,0.351573,0
0.544082,0.541093,0.439353,0.550353,0.614094,0.257988,0.243191,0.481955,0.178019,0
0.476067,0.621483,0.265267,0.545832,0.485317,0.40364,0.574432,0.326928,0.577073,0
0.505771,0.488697,0.497911,0.467566,0.471454,0.389321,0.479398,0.856985,0.454863,0
0.629668,0.583619,0.434434,0.537923,0.568472,0.435288,0.189722,0.711292,0.269594,0
0.554688,0.456138,0.220263,0.519147,0.655664,0.30517,0.356901,0.314878,0.333607,0
0.444654,0.443644,0.479633,0.408839,0.581699,0.347343,0.589866,0.606684,0.24973,0
0.505771,0.63944,0.255684,0.621307,0.496692,0.312988,0.499398,0.385014,0.511992,0
0.611932,0.409101,0.383576,0.308018,0.657006,0.540393,0.261577,0.541434,0.256178,0
0.499585,0.613849,0.37281,0.739282,0.719122,0.328725,0.642424,0.477954,0.557554,0
0.238899,0.395543,0.903253,0.640165,0.68786,0.531857,0.566307,0.558846,0.212732,0
0.505771,0.548521,0.324146,0.719216,0.612499,0.404812,0.289926,0.344015,0.589038,0
0.505771,0.525304,0.352044,0.540715,0.575659,0.377329,0.615372,0.367052,0.547326,1
0.555319,0.614167,0.361136,0.594562,0.727333,0.186383,0.457345,0.552675,0.461542,1
0.505771,0.454491,0.46914,0.305199,0.327486,0.661257,0.733366,0.409994,0.285451,1
0.514531,0.438944,0.369511,0.464286,0.405908,0.447465,0.54447,0.517336,0.933855,1
0.439321,0.701712,0.098866,0.724689,0.830448,0.302363,0.38852,0.669311,0.397364,1
0.505771,0.64756,0.153346,0.663456,0.763923,0.234791,0.55619,0.131936,0.474436,1
0.483395,0.567006,0.342194,0.382055,0.346738,0.268286,0.422005,0.641925,0.34983,1
0.574102,0.36629,0.789566,0.344726,0.395454,0.369702,0.393357,0.532673,0.199705,1
0.584084,0.5913,0.300547,0.541657,0.581699,0.479915,0.461607,0.691149,0.35463,1
0.481771,0.568215,0.326646,0.451918,0.498616,0.634519,0.376025,0.583068,0.64635,1
0.543127,0.606658,0.182882,0.833503,0.766754,0.244091,0.375888,0.465372,0.403665,1
0.610439,0.473043,0.378098,0.571434,0.635789,0.405411,0.389172,0.877088,0.388599,1
0.388037,0.66712,0.240529,0.691092,0.798193,0.467565,0.330967,0.525792,0.45839,1
0.551006,0.534315,0.443567,0.569813,0.548455,0.290885,0.32344,0.510984,0.327582,1
0.582467,0.437687,0.345453,0.457679,0.581699,0.415644,0.387075,0.479867,0.19105,1
0.505771,0.517923,0.373918,0.479842,0.481084,0.408152,0.431486,0.406916,0.288721,1
0.56042,0.530857,0.220813,0.677508,0.609665,0.575005,0.443211,0.798605,0.419201,1
0.511173,0.546122,0.438449,0.499611,0.655371,0.466852,0.395095,0.393973,0.285198,1
0.406764,0.701073,0.126058,0.608397,0.581699,0.516848,0.508019,0.552949,0.457669,1
0.47912,0.550808,0.280996,0.505514,0.581699,0.477825,0.474609,0.65422,0.448604,1
0.341087,0.669467,0.224234,0.709988,0.739196,0.602568,0.575,0.593881,0.335239,1
0.505771,0.554544,0.322241,0.549999,0.591515,0.199828,0.45341,0.234704,0.555343,1
0.505771,0.572002,0.282681,0.600689,0.758718,0.239662,0.446761,0.754303,0.293005,1
0.607265,0.531306,0.344271,0.52886,0.581699,0.370184,0.438438,0.489908,0.786972,1
0.552946,0.619551,0.369482,0.653188,0.667535,0.593735,0.502323,0.592113,0.43319,1
0.299106,0.583775,0.352817,0.430067,0.563798,0.145183,0.346174,0.372739,0.594245,1
0.505771,0.343548,0.735897,0.444512,0.315877,0.328397,0.705194,0.563275,0.596469,1
0.557715,0.48013,0.274467,0.471731,0.622308,0.714471,0.379023,0.655955,0.513434,1
0.421139,0.506803,0.604163,0.332582,0.352692,0.611489,0.352881,0.621023,0.417783,1
0.519261,0.390746,0.506359,0.221462,0.328935,0.567494,0.58182,0.587181,0.442283,1
0.505771,0.600704,0.192356,0.739157,0.625432,0.1793,0.391567,0.599831,0.463021,1
0.677829,0.436921,0.65201,0.626004,0.581699,0.303059,0.458556,0.826125,0.538986,1
0.532713,0.49341,0.236634,0.557595,0.587074,0.526622,0.259129,0.663979,0.57624,1
0.57088,0.662869,0.275107,0.723815,0.581699,0.597008,0.469317,0.550882,0.546946,1
0.55331,0.597923,0.350533,0.634529,0.660117,0.481815,0.736793,0.344395,0.421381,1
0.591128,0.420484,0.356171,0.421983,0.507533,0.297534,0.6842,0.63088,0.618518,1
0.491426,0.421345,0.726787,0.187062,0.256083,0.651492,0.548733,0.541897,0.801325,1
0.48567,0.695072,0.125858,0.78385,0.826295,0.335307,0.637111,0.346438,0.448097,1
0.583412,0.35355,0.588851,0.32826,0.479959,0.741398,0.690501,0.532673,0.37071,1
0.505771,0.606566,0.318055,0.437995,0.56011,0.357333,0.51201,0.625465,0.342532,1
0.338315,0.565285,0.465926,0.385078,0.553031,0.572408,0.454526,0.522604,0.670373,1
0.42528,0.6511,0.190616,0.729962,0.581699,0.296375,0.437151,0.566545,0.476205,1
0.469928,0.54763,0.362335,0.545251,0.682035,0.396446,0.147878,0.849106,0.423696,1
0.62682,0.398714,0.357803,0.593307,0.499411,0.523261,0.516967,0.666802,0.556616,1
0.489307,0.437274,0.661139,0.236428,0.387555,0.207967,0.528935,0.581081,0.308243,1
0.625508,0.500513,0.504381,0.641312,0.581699,0.396273,0.614376,0.580565,0.445981,1
0.505771,0.600555,0.35081,0.512645,0.581699,0.353696,0.367557,0.459247,0.33892,1
0.505771,0.474163,0.559264,0.475442,0.518497,0.680054,0.589737,0.553737,0.483247,1
0.576663,0.523713,0.275596,0.590742,0.580852,0.439645,0.426643,0.433859,0.643659,1
0.362734,0.499312,0.29233,0.293837,0.414895,0.60622,0.349634,0.645782,0.412373,1
0.53178,0.564531,0.413227,0.612426,0.80834,0.391595,0.42464,0.597709,0.212023,1
0.673858,0.402463,0.3309,0.430946,0.444266,0.516488,0.466987,0.587584,0.520146,1
0.42185,0.637341,0.2158,0.686745,0.707632,0.273449,0.434163,0.341602,0.277422,1
0.414535,0.528739,0.314103,0.297033,0.360698,0.321747,0.48738,0.063596,0.138346,1
0.544082,0.490612,0.548765,0.459799,0.68333,0.254861,0.454621,0.665606,0.372952,1
0.643462,0.367011,0.569742,0.410333,0.581699,0.360082,0.369927,0.395438,0.465308,1
0.387318,0.572501,0.299181,0.402345,0.504792,0.35078,0.318162,0.541574,0.276376,1
0.698442,0.393575,0.377871,0.572533,0.581699,0.306123,0.330444,0.605141,0.509239,1
0.371781,0.672674,0.287285,0.543896,0.581699,0.389117,0.408675,0.44426,0.37617,1
0.34804,0.643011,0.273198,0.526498,0.551193,0.302359,0.516942,0.642735,0.46663,1
0.556708,0.426298,0.41352,0.588339,0.651248,0.379423,0.50182,0.532673,0.523734,1
0.505771,0.767933,0.040835,0.76204,0.749461,0.302385,0.448236,0.512077,0.49751,1
0.504156,0.509682,0.431614,0.642223,0.785169,0.491084,0.621777,0.328993,0.40912,1
0.563597,0.481429,0.522764,0.580938,0.657,0.285152,0.346608,0.483151,0.332688,1
0.538264,0.632447,0.238215,0.496999,0.674408,0.702888,0.595091,0.478234,0.521527,1
0.514467,0.581795,0.189936,0.599902,0.581699,0.327984,0.313097,0.497312,0.804028,1
0.505771,0.512088,0.449796,0.411311,0.415254,0.592985,0.40669,0.532673,0.557394,1
0.62301,0.377919,0.459404,0.258314,0.338308,0.501669,0.496214,0.639292,0.344986,1
0.596617,0.316725,0.547422,0.319984,0.581699,0.377071,0.468233,0.444977,0.470602,1
0.448885,0.635698,0.298907,0.675403,0.756359,0.586975,0.523717,0.443335,0.677011,1
0.505771,0.537275,0.46127,0.55873,0.538349,0.547199,0.49134,0.376484,0.492034,1
0.66469,0.422551,0.643246,0.513713,0.55925,0.287087,0.402766,0.500828,0.573846,1
0.351656,0.583893,0.257268,0.414571,0.626807,0.38982,0.35262,0.679753,0.355379,1
0.438787,0.362869,0.567173,0.260858,0.444436,0.514046,0.717983,0.433715,0.741237,1
0.410322,0.582672,0.314199,0.496434,0.581699,0.315775,0.513553,0.661841,0.393931,1
0.472618,0.55986,0.274885,0.626331,0.657932,0.542512,0.312414,0.480855,0.459778,1
0.544536,0.446134,0.590191,0.445302,0.489216,0.389987,0.39447,0.6426,0.626772,1
0.561436,0.488262,0.56268,0.456819,0.44946,0.181417,0.466116,0.601568,0.387554,1
0.528079,0.575132,0.211715,0.578347,0.581699,0.621923,0.530774,0.637825,0.563762,1
0.505771,0.469176,0.401806,0.472982,0.520861,0.342012,0.30154,0.40066,0.603335,1
0.398537,0.639062,0.212922,0.575083,0.681466,0.338881,0.690591,0.842457,0.490436,1
0.307398,0.651361,0.114969,0.558787,0.561585,0.404667,0.41022,0.551759,0.105982,1
0.522194,0.501956,0.355773,0.632917,0.581699,0.426765,0.488422,0.722333,0.402501,1
0.458407,0.500124,0.54246,0.408755,0.69799,0.574155,0.599578,0.832242,0.490888,1
0.505771,0.485578,0.382453,0.399452,0.435507,0.576123,0.451288,0.418325,0.462103,1
0.769594,0.419537,0.619253,0.56753,0.627787,0.518029,0.433966,0.532673,0.336516,1
0.359747,0.517725,0.47512,0.363136,0.487105,0.263834,0.339303,0.936409,0.394151,1
0.505771,0.57103,0.398468,0.581007,0.581699,0.453701,0.397205,0.954222,0.542309,1
0.743932,0.435234,0.561759,0.469888,0.611621,0.542149,0.657312,0.359933,0.521675,1
0.601329,0.5239,0.476024,0.411261,0.503721,0.638807,0.418926,0.773857,0.376791,1
0.55776,0.555993,0.252414,0.537578,0.581699,0.591718,0.423835,0.637722,0.193367,1
0.539855,0.395477,0.533812,0.231672,0.36439,0.167437,0.599893,0.501494,0.348321,1
0.803179,0.44242,0.709496,0.433382,0.602304,0.270981,0.532173,0.476676,0.279817,1
0.409202,0.543214,0.207067,0.417416,0.431588,0.460928,0.45887,0.546696,0.560063,1
0.749058,0.499311,0.429054,0.719904,0.748078,0.479594,0.527817,0.37856,0.445141,1
0.270866,0.620471,0.272687,0.450747,0.581699,0.400816,0.455583,0.483377,0.599487,1
0.408304,0.496196,0.313146,0.387254,0.458132,0.562219,0.668349,0.547601,0.374955,1
0.505771,0.489261,0.494354,0.45395,0.629061,0.521935,0.550826,0.470032,0.583498,1
0.390972,0.620552,0.234581,0.412474,0.581699,0.509414,0.32121,0.587107,0.66323,1
0.505771,0.474449,0.616365,0.278725,0.581699,0.618339,0.587948,0.51381,0.692734,1
0.483638,0.48745,0.436068,0.380733,0.44242,0.514227,0.477603,0.484965,0.654289,1
0.431669,0.512276,0.402843,0.314601,0.474093,0.303438,0.207656,0.64259,0.623038,1
0.505771,0.598668,0.381754,0.362019,0.487818,0.469464,0.187371,0.529675,0.310799,1
0.451459,0.590797,0.186537,0.51792,0.51921,0.340085,0.374461,0.504798,0.586761,1
0.656101,0.428774,0.291481,0.607148,0.581699,0.617661,0.229489,0.478051,0.517428,1
0.620341,0.412388,0.664602,0.393737,0.501473,0.555717,0.52742,0.609891,0.458943,1
0.568694,0.641603,0.184386,0.715466,0.677401,0.472712,0.487019,0.640498,0.158242,1
0.391725,0.541761,0.312898,0.364128,0.473229,0.291882,0.632716,0.613946,0.565108,1
0.513352,0.471739,0.561351,0.362617,0.473919,0.518504,0.558526,0.503147,0.534249,1
0.390772,0.601136,0.295116,0.44551,0.581699,0.238634,0.444033,0.396752,0.286038,1
0.505771,0.535335,0.280127,0.523274,0.568495,0.353778,0.3428,0.73136,0.452525,1
0.699481,0.412148,0.491382,0.380612,0.366556,0.40512,0.394383,0.612416,0.430917,1
0.259798,0.694658,0.1606,0.56205,0.592376,0.572985,0.445151,0.396836,0.755637,1
0.504628,0.511294,0.332416,0.555088,0.65711,0.831395,0.539266,0.682199,0.558069,1
0.473717,0.559457,0.391426,0.595892,0.683525,0.289191,0.568337,0.490561,0.366098,1
0.422425,0.609615,0.209596,0.58182,0.584285,0.178222,0.478298,0.442865,0.793837,1
0.677479,0.273766,0.919946,0.302756,0.257232,0.523493,0.434231,0.33257,0.507142,1
0.603386,0.422638,0.316258,0.476022,0.584199,0.639214,0.61451,0.364511,0.71248,1
0.551959,0.654392,0.302875,0.733065,0.581699,0.257704,0.231165,0.53496,0.595916,1
0.489952,0.477478,0.44735,0.433155,0.279375,0.367426,0.477799,0.671188,0.577043,1
0.417628,0.597515,0.313545,0.633271,0.581699,0.371541,0.58858,0.394691,0.363228,1
0.45,0.453108,0.662677,0.304566,0.493173,0.53193,0.633637,0.519792,0.427196,1
0.474748,0.741422,0.08531,0.844705,0.581699,0.275811,0.372814,0.614839,0.555417,1
0.522389,0.403622,0.37489,0.296777,0.41914,0.445973,0.332953,0.70723,0.145706,1
0.469475,0.52673,0.234426,0.455,0.52592,0.284006,0.580222,0.424685,0.259203,1
0.428744,0.538902,0.259669,0.417672,0.49138,0.271799,0.375032,0.350267,0.541749,1
0.505771,0.600225,0.226265,0.685752,0.737969,0.272283,0.245304,0.599079,0.411162,1
0.424004,0.636545,0.29128,0.753873,0.831524,0.24834,0.463545,0.414815,0.470842,1
0.542221,0.537679,0.281149,0.387872,0.581699,0.587067,0.482741,0.689895,0.582567,1
0.491125,0.524468,0.412132,0.565116,0.581699,0.559792,0.328964,0.548073,0.36818,1
0.572591,0.593406,0.225158,0.739335,0.739534,0.541384,0.471762,0.282552,0.540409,1
0.6274,0.553147,0.314426,0.552908,0.541819,0.250854,0.540678,0.598989,0.382092,1
0.493693,0.478003,0.415248,0.537981,0.539691,0.204713,0.370073,0.759376,0.598722,1
0.622803,0.48453,0.280923,0.553363,0.581699,0.188366,0.468476,0.44341,0.465652,1
0.426756,0.542891,0.364861,0.415707,0.594714,0.401009,0.343643,0.479373,0.429566,1
0.316384,0.757296,0.138343,0.677756,0.581699,0.438262,0.540516,0.532673,0.533403,1
0.505771,0.316466,0.490769,0.347582,0.299081,0.367813,0.643646,0.532673,0.452049,1
0.505771,0.632022,0.16084,0.60075,0.645431,0.571433,0.454347,0.325963,0.329009,1
0.586795,0.392942,0.496803,0.231466,0.581699,0.285852,0.440078,0.62018,0.578821,1
0.559196,0.468985,0.542082,0.398182,0.448804,0.189968,0.140687,0.608269,0.708914,1
0.567855,0.505481,0.243818,0.585618,0.581699,0.393679,0.70267,0.708402,0.353026,1
0.436738,0.47522,0.497244,0.408301,0.374317,0.508468,0.555995,0.371685,0.421707,1
0.505771,0.648691,0.247252,0.493892,0.581699,0.369102,0.455292,0.401976,0.579858,1
0.509959,0.478081,0.320852,0.607433,0.593548,0.320078,0.58178,0.710875,0.438948,1
0.505771,0.638684,0.325311,0.596926,0.653993,0.517363,0.334631,0.39272,0.541595,1
0.56918,0.395438,0.438166,0.34165,0.581699,0.479763,0.236026,0.419944,0.325937,1
0.473992,0.531817,0.32867,0.444686,0.50835,0.404119,0.5247,0.461663,0.581062,1
0.456753,0.528182,0.513892,0.525486,0.581699,0.584624,0.41693,0.802378,0.301096,1
0.448641,0.571983,0.42117,0.631381,0.723435,0.480993,0.450372,0.260105,0.595468,1
0.570859,0.461116,0.562572,0.488086,0.581699,0.633837,0.383121,0.572222,0.60448,1
0.362057,0.595801,0.36877,0.389677,0.53434,0.528029,0.471103,0.620421,0.550593,1
0.505771,0.426117,0.532741,0.466355,0.444737,0.604546,0.522732,0.478575,0.387493,1
0.582232,0.57461,0.251879,0.52113,0.586945,0.654194,0.485101,0.584321,0.255225,1
0.541639,0.499158,0.373555,0.433681,0.478668,0.588545,0.376952,0.645573,0.513146,1
0.381723,0.547521,0.216265,0.485892,0.567135,0.71675,0.455341,0.492082,0.501928,1
0.562283,0.624576,0.20424,0.604666,0.656439,0.296128,0.517193,0.67677,0.28144,1
0.380502,0.673609,0.217706,0.54876,0.646024,0.449534,0.300758,0.442101,0.643944,1
0.753591,0.499593,0.522607,0.671778,0.581699,0.673061,0.462949,0.686792,0.472926,1
0.505771,0.503253,0.291665,0.360022,0.481207,0.291161,0.517837,0.607264,0.306092,1
0.533645,0.470821,0.253104,0.510869,0.42073,0.384945,0.348111,0.466471,0.426919,1
0.56742,0.596262,0.521297,0.580604,0.458305,0.300516,0.600458,0.630809,0.50325,0
0.192202,0.378505,0.490649,0.446268,0.49627,0.342243,0.456745,0.363981,0.605036,0
0.65255,0.534595,0.150657,0.456667,0.615612,0.666751,0.43971,0.597801,0.346342,0
0.372429,0.526736,0.555992,0.425155,0.437376,0.347891,0.523669,0.647081,0.567882,0
0.617824,0.464267,0.157243,0.445902,0.589374,0.400696,0.301504,0.532673,0.714655,0
0.554048,0.505109,0.363172,0.556604,0.6079,0.243849,0.665616,0.532673,0.263277,0
0.50745,0.472048,0.203108,0.533775,0.581699,0.46436,0.466543,0.486815,0.759096,0
0.383097,0.480534,0.438789,0.482885,0.518328,0.397718,0.287537,0.638857,0.457813,0
0.470179,0.556059,0.384189,0.642961,0.636331,0.484174,0.413865,0.639218,0.510874,0
0.486462,0.588713,0.530018,0.553486,0.602715,0.277247,0.556964,0.337585,0.558204,0
0.505771,0.522683,0.206294,0.518822,0.566997,0.726171,0.430939,0.405787,0.174499,0
0.398151,0.528583,0.282819,0.694166,0.673798,0.624365,0.450243,0.538723,0.700043,0
0.611092,0.613813,0.295807,0.621424,0.517926,0.366278,0.572369,0.316718,0.422982,0
0.320243,0.45323,0.21018,0.385498,0.460753,0.405802,0.370564,0.606566,0.14253,0
0.270217,0.400522,0.329422,0.337775,0.485891,0.438829,0.402353,0.532673,0.558186,0
0.509884,0.498068,0.365385,0.513167,0.581699,0.565493,0.624665,0.530569,0.509524,0
0.505771,0.450359,0.237477,0.552061,0.633114,0.323831,0.318173,0.463437,0.332798,0
0.565169,0.594665,0.566239,0.670166,0.581699,0.722933,0.554866,0.578524,0.270092,0
0.505771,0.528433,0.280235,0.575353,0.71886,0.502669,0.537664,0.54466,0.523302,0
0.652026,0.497839,0.165782,0.508665,0.735927,0.332247,0.315881,0.547176,0.437176,0
0.376569,0.528624,0.356031,0.456513,0.394357,0.29727,0.515877,0.55068,0.504715,0
0.461792,0.703089,0.716474,0.55328,0.502855,0.634976,0.711455,0.721297,0.442527,0
0.588942,0.550882,0.223106,0.705882,0.786999,0.423624,0.48281,0.783202,0.505905,0
0.505771,0.540458,0.292383,0.599302,0.552657,0.230613,0.62838,0.545394,0.38799,0
0.478914,0.469597,0.456765,0.51586,0.581699,0.479994,0.530114,0.319142,0.445566,0
0.459304,0.580892,0.435656,0.527273,0.497608,0.414326,0.602343,0.276471,0.634485,0
0.534485,0.502958,0.316887,0.612123,0.682301,0.513637,0.380355,0.847202,0.500047,0
0.393175,0.424637,0.190938,0.504811,0.491976,0.622629,0.467198,0.561421,0.606421,0
0.53728,0.547432,0.325393,0.534298,0.581699,0.737194,0.443433,0.682114,0.314035,0
0.505771,0.423163,0.148157,0.438928,0.625001,0.325091,0.449731,0.714202,0.587887,0
0.608755,0.5829,0.264757,0.499239,0.691712,0.288342,0.375562,0.649191,0.360802,0
0.406748,0.529577,0.302465,0.485688,0.562458,0.467371,0.437675,0.450978,0.502452,0
0.495322,0.469863,0.246321,0.416037,0.68273,0.444978,0.751462,0.84381,0.458544,0
0.436799,0.648015,0.400264,0.497497,0.481007,0.434063,0.472647,0.570391,0.423683,0
0.612548,0.544551,0.255601,0.353304,0.518584,0.4953,0.633599,0.320346,0.388775,0
0.406367,0.486603,0.283523,0.539058,0.630008,0.286876,0.529896,0.532673,0.594248,0
0.505771,0.550008,0.650291,0.399378,0.369314,0.133738,0.461484,0.420879,0.493359,0
0.516152,0.601717,0.37449,0.45727,0.498714,0.774223,0.56637,0.592199,0.511166,0
0.514128,0.439654,0.204286,0.512375,0.581699,0.672835,0.392244,0.527403,0.45264,0
0.274772,0.520729,0.436315,0.413114,0.581699,0.837219,0.610161,0.628057,0.403517,0
0.421167,0.476061,0.280745,0.386705,0.581699,0.51097,0.545506,0.638747,0.677416,0
0.505771,0.725524,0.714624,0.588163,0.554622,0.266993,0.554067,0.434023,0.401275,0
0.594739,0.603728,0.577228,0.627173,0.618659,0.677824,0.584922,0.503439,0.55687,0
0.492254,0.548121,0.425565,0.37588,0.581699,0.446689,0.246526,0.698287,0.399312,0
0.396295,0.615129,0.553077,0.492793,0.574958,0.435048,0.515212,0.521188,0.595431,0
0.505771,0.464853,0.275362,0.546882,0.551526,0.542519,0.364213,0.418827,0.541891,0
0.38476,0.578417,0.329945,0.544873,0.645922,0.600917,0.30721,0.562177,0.542806,0
0.518752,0.598818,0.630349,0.429417,0.378078,0.263949,0.455892,0.564349,0.642155,0
0.446935,0.482329,0.221739,0.526272,0.618206,0.421637,0.369276,0.625499,0.481133,0
0.501822,0.572989,0.354046,0.542001,0.499196,0.45627,0.522749,0.526053,0.282011,0
0.470346,0.539377,0.267444,0.494871,0.552146,0.21549,0.394696,0.689135,0.466998,0
0.468974,0.407329,0.307419,0.496377,0.438924,0.370968,0.6133,0.538009,0.249754,0
0.473007,0.542123,0.257602,0.540436,0.581699,0.144791,0.467853,0.36273,0.726209,0
0.515528,0.48156,0.217689,0.441575,0.536781,0.420523,0.389668,0.508744,0.434226,0
0.375279,0.524317,0.566,0.42782,0.581699,0.37462,0.397345,0.439963,0.385398,0
0.580813,0.470319,0.212082,0.495244,0.581699,0.470806,0.705118,0.68446,0.395691,0
0.472841,0.374644,0.181715,0.505329,0.68674,0.437077,0.211141,0.591393,0.498567,0
0.505771,0.576318,0.302618,0.614517,0.612417,0.575324,0.121164,0.496287,0.348564,0
0.44409,0.573888,0.535101,0.437892,0.481181,0.407946,0.380397,0.636912,0.119385,0
0.35857,0.397323,0.311163,0.456572,0.575404,0.279568,0.536267,0.604928,0.499052,0
0.493384,0.590685,0.656243,0.510583,0.468752,0.278427,0.615076,0.675667,0.008716,0
0.450937,0.416785,0.337047,0.52716,0.581699,0.361058,0.492245,0.674849,0.506138,0
0.505771,0.478389,0.07806,0.656421,0.927338,0.368745,0.560894,0.612562,0.557295,0
0.520995,0.483914,0.254529,0.576906,0.581699,0.482701,0.25508,0.300148,0.558376,0
0.473597,0.50538,0.502708,0.575458,0.581699,0.26124,0.445048,0.697823,0.385817,0
0.572556,0.481074,0.193983,0.462417,0.514355,0.848473,0.592343,0.534235,0.327204,0
0.303564,0.439404,0.258639,0.392086,0.375728,0.467891,0.350544,0.699396,0.504131,0
0.304662,0.551585,0.415616,0.435451,0.372869,0.208206,0.383093,0.447862,0.652382,0
0.661917,0.565198,0.330965,0.507771,0.591709,0.571469,0.649982,0.532673,0.544536,0
0.687104,0.59062,0.293305,0.593964,0.581699,0.35996,0.58537,0.529372,0.325808,0
0.506206,0.525787,0.413814,0.548105,0.55035,0.642526,0.4722,0.514241,0.480781,0
0.245277,0.381034,0.262663,0.440008,0.522864,0.404701,0.297707,0.549801,0.501974,0
0.602626,0.707516,0.73188,0.587952,0.581699,0.689774,0.472482,0.405934,0.198508,0
0.874781,0.616398,0.180559,0.635081,0.701345,0.290577,0.289751,0.593,0.393882,0
0.524502,0.548071,0.2252,0.425546,0.581699,0.520684,0.340627,0.489707,0.725668,0
0.329746,0.526464,0.24072,0.448378,0.581699,0.284445,0.340613,0.711862,0.223925,0
0.59339,0.662004,0.297699,0.512184,0.595072,0.495607,0.280157,0.675921,0.60044,0
0.350689,0.398301,0.166942,0.514896,0.581699,0.227787,0.338077,0.387691,0.736495,0
0.55065,0.476542,0.300284,0.577882,0.581699,0.490886,0.447843,0.52006,0.526585,0
0.505771,0.458427,0.430695,0.464836,0.466352,0.323917,0.424195,0.579188,0.332198,0
0.558448,0.47802,0.447205,0.559879,0.529634,0.310593,0.399183,0.418941,0.355312,0
0.586247,0.516918,0.281204,0.501736,0.581699,0.468523,0.503284,0.439781,0.510846,0
0.497038,0.508962,0.21568,0.548853,0.573105,0.295737,0.556289,0.624144,0.518926,0
0.505771,0.531369,0.239968,0.536313,0.51259,0.465091,0.382399,0.532673,0.53846,0
0.310674,0.399291,0.394559,0.439587,0.448953,0.439197,0.324416,0.353321,0.565837,0
0.47357,0.537804,0.347659,0.48489,0.66668,0.269858,0.352303,0.530798,0.205048,0
0.640693,0.537965,0.143314,0.556952,0.759745,0.344569,0.59608,0.920565,0.478937,0
0.483646,0.53394,0.252824,0.500536,0.596543,0.455089,0.792759,0.606309,0.339358,0
0.480331,0.637463,0.67696,0.578685,0.40382,0.493831,0.420116,0.489371,0.278203,0
0.505771,0.630994,0.454121,0.486919,0.62672,0.304792,0.298328,0.658966,0.376181,0
0.497662,0.621566,0.551877,0.675161,0.659025,0.449981,0.629619,0.577479,0.344578,0
0.505771,0.647607,0.530261,0.550189,0.369869,0.304963,0.341864,0.532375,0.337091,0
0.503794,0.701579,0.3149,0.602675,0.723425,0.342225,0.412091,0.444453,0.79826,0
0.55394,0.541731,0.307091,0.513493,0.749367,0.27445,0.328462,0.615596,0.241785,0
0.612858,0.46093,0.101346,0.523579,0.796467,0.388405,0.533436,0.417231,0.330042,0
0.492979,0.456023,0.164236,0.554584,0.703949,0.62452,0.314252,0.292174,0.299805,0
0.558161,0.565673,0.396499,0.569817,0.548175,0.586094,0.576357,0.648326,0.501921,0
0.422782,0.389353,0.154198,0.389375,0.581699,0.358015,0.550931,0.528503,0.53234,0
0.501521,0.645352,0.374164,0.434855,0.544089,0.486862,0.439467,0.621456,0.42079,0
0.505771,0.516456,0.321261,0.607731,0.815065,0.639219,0.412219,0.569514,0.651116,0
0.58091,0.578016,0.418958,0.652277,0.618162,0.508505,0.361418,0.532673,0.287282,0
0.432648,0.496718,0.237846,0.422811,0.726704,0.490545,0.48096,0.272005,0.55242,0
0.381648,0.595701,0.736311,0.493135,0.428279,0.532432,0.669821,0.566345,0.527516,0
0.505771,0.381134,0.181883,0.655732,0.771721,0.356473,0.363088,0.46943,0.755328,0
0.410181,0.491523,0.344348,0.506803,0.50434,0.44373,0.342685,0.550651,0.533599,0
0.470344,0.489472,0.400651,0.460816,0.581699,0.407211,0.589372,0.628545,0.558543,0
0.576463,0.549287,0.294644,0.512749,0.760217,0.341389,0.334271,0.702906,0.303609,0
0.475202,0.509679,0.309242,0.43817,0.614601,0.441353,0.702038,0.206088,0.418138,0
0.39329,0.424619,0.34845,0.440861,0.581699,0.476341,0.426809,0.446312,0.251258,0
0.505771,0.607709,0.587644,0.527755,0.581699,0.406775,0.52393,0.575147,0.185764,0
0.460126,0.461928,0.180364,0.495793,0.581699,0.634545,0.571258,0.717042,0.422033,0
0.505771,0.533252,0.67547,0.516608,0.315063,0.316541,0.456331,0.470652,0.651322,0
0.589193,0.558257,0.403767,0.589093,0.738824,0.409541,0.407741,0.414736,0.39526,0
0.183517,0.559216,0.786179,0.471913,0.377013,0.434133,0.328894,0.640762,0.767051,0
0.404632,0.504971,0.301414,0.37588,0.522919,0.269335,0.588183,0.477307,0.400887,0
0.642821,0.679757,0.338431,0.597139,0.670569,0.459192,0.381945,0.435387,0.424482,0
0.399181,0.449419,0.28587,0.409911,0.60802,0.498308,0.445508,0.475722,0.552845,0
0.447546,0.405736,0.301941,0.507551,0.526156,0.556293,0.492786,0.546553,0.34336,0
0.494432,0.558515,0.265899,0.634912,0.650328,0.270281,0.71759,0.485007,0.528067,0
0.576615,0.590651,0.271276,0.66078,0.654818,0.660449,0.577149,0.551678,0.686747,0
0.630578,0.540933,0.285335,0.67228,0.712763,0.534012,0.586869,0.490377,0.443055,0
0.617675,0.493904,0.208106,0.457413,0.719704,0.539082,0.608313,0.751826,0.411061,0
0.533967,0.609365,0.50961,0.559412,0.592171,0.517175,0.382617,0.431364,0.485077,0
0.82392,0.492688,0.062241,0.553015,0.766852,0.513714,0.331027,0.557204,0.293079,0
0.460933,0.477222,0.374486,0.469864,0.562034,0.332948,0.420625,0.330904,0.376415,0
0.585158,0.452899,0.216851,0.548155,0.705779,0.47832,0.193209,0.532673,0.385571,0
0.517693,0.590655,0.512936,0.68328,0.581699,0.659328,0.429701,0.591352,0.353555,0
0.563795,0.558599,0.331741,0.413055,0.482964,0.21403,0.500178,0.574421,0.350201,0
0.440318,0.564342,0.310489,0.641822,0.581699,0.331697,0.231198,0.615918,0.377463,0
0.566957,0.446198,0.103527,0.373023,0.692057,0.235266,0.802144,0.592626,0.533343,0
0.591509,0.653709,0.290191,0.559004,0.552168,0.486802,0.466041,0.126182,0.423141,0
0.350464,0.458291,0.237499,0.429883,0.393605,0.767433,0.213636,0.308743,0.321865,0
0.581677,0.489679,0.169977,0.489694,0.581699,0.430284,0.441354,0.62494,0.212295,0
0.365565,0.479773,0.425153,0.403202,0.495007,0.328988,0.481298,0.666009,0.445585,0
0.460648,0.420816,0.27231,0.375752,0.438079,0.377756,0.558899,0.659393,0.355748,0
0.400969,0.569974,0.267542,0.412286,0.531487,0.279859,0.497086,0.589899,0.380996,0
0.411015,0.704302,0.518015,0.54382,0.211472,0.549894,0.787882,0.573502,0.845195,0
0.493327,0.552088,0.244316,0.374528,0.581699,0.217781,0.498575,0.728862,0.346521,0
0.452591,0.656613,0.476499,0.517532,0.581699,0.378936,0.511304,0.740482,0.434057,0
0.58009,0.554683,0.411974,0.484982,0.52578,0.403077,0.391546,0.47886,0.563114,0
0.505771,0.532241,0.179865,0.54126,0.76778,0.430899,0.498589,0.273675,0.27597,0
0.638223,0.62012,0.385072,0.474587,0.556329,0.404857,0.431057,0.509819,0.703025,0
0.460913,0.518294,0.356515,0.513714,0.581699,0.301497,0.381535,0.539294,0.373429,0
0.604201,0.646665,0.252142,0.474211,0.526464,0.795256,0.322364,0.577837,0.389054,0
0.495006,0.591217,0.36911,0.437832,0.581699,0.511161,0.44828,0.513578,0.510383,0
0.446791,0.458512,0.412689,0.460363,0.581699,0.525542,0.461115,0.567623,0.51885,0
0.404987,0.565924,0.442051,0.489468,0.581699,0.314334,0.340807,0.553172,0.784734,0
0.567529,0.596202,0.256416,0.491934,0.729064,0.368417,0.284254,0.320422,0.7523,0
0.535703,0.593245,0.383976,0.532017,0.581699,0.53048,0.608504,0.423727,0.568061,0
0.335394,0.549448,0.401375,0.589256,0.637685,0.57944,0.680364,0.35378,0.603467,0
0.479331,0.566614,0.384644,0.498995,0.606315,0.479985,0.524121,0.510611,0.456284,0
0.678775,0.464844,0.068061,0.474713,0.687019,0.39315,0.44269,0.459998,0.527008,0
0.314666,0.443649,0.241663,0.466239,0.636075,0.424523,0.469033,0.6363,0.498557,0
0.486453,0.432223,0.304257,0.586748,0.581699,0.197427,0.430932,0.433059,0.504008,0
0.498795,0.484916,0.282112,0.515039,0.581699,0,0.36009,0.578409,0.562863,0
0.497724,0.5751,0.310089,0.542779,0.438821,0.485597,0.602183,0.406782,0.298889,0
0.411611,0.498438,0.358552,0.465774,0.621466,0.468563,0.411898,0.528157,0.2754,0
0.599803,0.551571,0.270108,0.607845,0.609049,0.386426,0.576094,0.609397,0.262014,0
0.630595,0.517039,0.216842,0.531817,0.794224,0.274593,0.626188,0.532673,0.303048,0
0.671132,0.416137,0.146205,0.620198,0.581699,0.472216,0.399721,0.645064,0.393363,0
0.54237,0.557277,0.310202,0.575978,0.631724,0.471668,0.083215,0.599828,0.395555,0
0.367795,0.547352,0.270487,0.49754,0.562316,0.213077,0.395053,0.532511,0.640797,0
0.351196,0.522449,0.379343,0.509243,0.581699,0.235965,0.616159,0.346378,0.409002,0
0.505771,0.563872,0.397293,0.53741,0.656631,0.54361,0.557214,0.583895,0.515139,0
0.526521,0.483527,0.416236,0.549935,0.515772,0.203843,0.401211,0.217596,0.498146,0
0.591339,0.553989,0.477143,0.539951,0.581699,0.480865,0.496576,0.564643,0.627287,0
0.728784,0.596794,0.351163,0.558896,0.581699,0.373618,0.740253,0.502356,0.344281,0
0.325868,0.514449,0.385984,0.584198,0.557245,0.384829,0.437707,0.532673,0.637717,0
0.505771,0.57499,0.483085,0.560994,0.581699,0.435006,0.709597,0.662481,0.462077,0
0.371619,0.53646,0.373205,0.517226,0.331587,0.510729,0.362421,0.395778,0.468516,0
0.653552,0.664255,0.494985,0.572654,0.592443,0.626276,0.533851,0.465647,0.753795,0
0.543968,0.571065,0.132701,0.443078,0.82183,0.226796,0.403921,0.539861,0.528102,0
0.558076,0.494267,0.155833,0.567956,0.77088,0.626251,0.388815,0.727331,0.617077,0
0.551502,0.565569,0.582531,0.573886,0.522452,0.425775,0.608912,0.776428,0.513989,0
0.646875,0.544935,0.280473,0.574318,0.592165,0.407938,0.503826,0.510772,0.353442,0
0.577333,0.603293,0.350846,0.659083,0.556867,0.571177,0.568514,0.532673,0.71793,0
0.417762,0.591273,0.538113,0.449619,0.520909,0.526298,0.368327,0.49648,0.647482,0
0.605039,0.551549,0.4308,0.591184,0.632726,0.542155,0.27988,0.530645,0.280923,0
0.659184,0.484282,0.164588,0.446574,0.581699,0.376945,0.613619,0.431915,0.451727,0
0.583613,0.583431,0.205002,0.402134,0.550872,0.50807,0.428718,0.225766,0.481349,0
0.455856,0.596627,0.334749,0.455512,0.425955,0.600833,0.554945,0.598658,0.669672,0
0.499272,0.629573,0.335739,0.626929,0.507124,0.253738,0.386446,0.503242,0.635013,0
0.741293,0.553415,0.136667,0.74141,0.89129,0.511193,0.458094,0.514566,0.40224,0
0.505771,0.488475,0.2808,0.505966,0.581699,0.549138,0.358558,0.690611,0.400491,0
0.256487,0.603102,0.543634,0.406291,0.50956,0.496882,0.610227,0.40031,0.509507,0
0.527751,0.557237,0.223297,0.580391,0.581699,0.66326,0.470004,0.597394,0.559473,0
0.497631,0.401212,0.195969,0.528659,0.68891,0.351416,0.467743,0.627628,0.285014,0
0.47882,0.48858,0.393981,0.521159,0.603169,0.521202,0.685389,0.431496,0.524463,0
0.509977,0.49329,0.272476,0.484338,0.581699,0.318757,0.304385,0.33731,0.321684,0
0.474914,0.604036,0.263806,0.571781,0.649739,0.334354,0.504962,0.252775,0.697305,0
0.505771,0.488326,0.288123,0.742146,0.660561,0.311206,0.690013,0.392811,0.514289,0
0.567194,0.5427,0.171444,0.560768,0.726616,0.392812,0.537826,0.599322,0.291199,0
0.587755,0.488824,0.292436,0.497848,0.587394,0.679278,0.494994,0.508037,0.251833,0
0.618978,0.41687,0.057161,0.464153,0.581699,0.27365,0.65405,0.67705,0.386469,0
0.361717,0.606101,0.340099,0.6875,0.581699,0.506584,0.426572,0.466131,0.694404,0
0.56388,0.467505,0.18679,0.614177,0.703871,0.352421,0.401436,0.458716,0.267542,0
0.503057,0.531806,0.269466,0.575337,0.628479,0.565597,0.670629,0.661319,0.475638,0
0.593219,0.470606,0.13349,0.427015,0.587653,0.315126,0.465876,0.407171,0.569335,0
0.590593,0.439824,0.211156,0.472112,0.480944,0.197276,0.389518,0.636599,0.558784,0
0.505771,0.551842,0.410207,0.438731,0.568511,0.185557,0.443913,0.268076,0.507292,0
0.528397,0.618461,0.397023,0.435781,0.581699,0.427587,0.385561,0.395617,0.190837,0
0.454807,0.494601,0.185511,0.444871,0.610254,0.317022,0.553398,0.58835,0.220224,0
0.600759,0.499658,0.487049,0.612603,0.581699,0.53933,0.593784,0.596227,0.548742,0
0.507018,0.580733,0.366966,0.46439,0.473214,0.202188,0.571085,0.570191,0.654107,0
0.523036,0.53927,0.31546,0.493868,0.479621,0.413724,0.573248,0.557588,0.289591,0
0.371302,0.455899,0.178265,0.433774,0.608498,0.364744,0.458272,0.524858,0.445702,0
0.505771,0.602276,0.333391,0.633273,0.538984,0.273514,0.210318,0.618724,0.33779,0
0.505771,0.61053,0.598546,0.494486,0.469025,0.539298,0.344075,0.532673,0.624752,0
0.448636,0.476166,0.273027,0.588191,0.685527,0.362098,0.33607,0.599293,0.297086,0
0.487424,0.358003,0.215855,0.475243,0.456143,0.40457,0.463896,0.655446,0.485185,0
0.473571,0.586615,0.331115,0.542224,0.579147,0.600497,0.710795,0.482702,0.322408,0
0.735827,0.551983,0.179914,0.556782,0.864834,0.490498,0.570847,0.506667,0.455257,0
0.437371,0.485616,0.243229,0.42834,0.468257,0.367445,0.359839,0.496574,0.757767,0
0.505771,0.539397,0.167789,0.478079,0.653831,0.383304,0.436152,0.366396,0.510396,0
0.489145,0.429404,0.094367,0.452456,0.693709,0.456935,0.341692,0.513456,0.530731,0
0.505771,0.651635,0.736307,0.604616,0.428253,0.508451,0.567579,0.583053,0.320437,0
0.457966,0.545003,0.314982,0.619209,0.581699,0.445167,0.410042,0.532673,0.141932,0
0.365903,0.535333,0.278437,0.522539,0.589341,0.463801,0.101978,0.584929,0.388452,0
0.245347,0.500236,0.367274,0.610486,0.511937,0.379266,0.30019,0.447902,0.74485,0
0.774866,0.686611,0.225186,0.677173,0.581699,0.670478,0.582598,0.532673,0.318366,0
0.623242,0.602768,0.304431,0.651125,0.554006,0.375521,0.684128,0.77764,0.589061,0
0.73941,0.704554,0.299926,0.660069,0.581699,0.213697,0.437393,0.603527,0.714239,0
0.583859,0.525798,0.31996,0.516933,0.706473,0.563143,0.443715,0.477071,0.479633,0
0.573858,0.544729,0.408558,0.481338,0.572542,0.540934,0.494532,0.72255,0.189473,0
0.58611,0.510879,0.321509,0.364054,0.581699,0.262061,0.492829,0.463049,0.412938,0
0.563844,0.565358,0.271446,0.54657,0.598719,0.380349,0.655891,0.469217,0.389205,0
0.505771,0.620161,0.181422,0.509967,0.749486,0.180232,0.532395,0.532673,0.34346,0
0.39201,0.526225,0.351275,0.399379,0.581699,0.650167,0.416917,0.702094,0.416523,0
0.583077,0.416406,0.167038,0.605518,0.837859,0.534808,0.52918,0.56172,0.50637,0
0.4905,0.496266,0.232212,0.501554,0.688246,0.552969,0.482102,0.589764,0.384595,0
0.415836,0.6264,0.651637,0.491572,0.581699,0.54495,0.391603,0.392589,0.464776,0
0.532278,0.565008,0.254559,0.501154,0.581699,0.29285,0.340801,0.736278,0.468913,0
0.492737,0.657875,0.748999,0.721098,0.706795,0.368795,0.447241,0.537437,0.448536,0
0.538881,0.48129,0.278007,0.421859,0.581699,0.689748,0.485131,0.47068,0.564476,0
0.293133,0.438357,0.359348,0.430378,0.581699,0.28571,0.508293,0.275686,0.445992,0
0.38071,0.539017,0.388787,0.420945,0.585439,0.577453,0.627896,0.549399,0.822334,0
0.497357,0.57813,0.38938,0.574517,0.646627,0.648393,0.244241,0.71297,0.625899,0
0.489004,0.472981,0.265896,0.453637,0.51104,0.632172,0.399482,0.488084,0.616255,0
0.44856,0.46595,0.1849,0.525087,0.581699,0.435139,0.516275,0.697881,0.345733,0
0.481418,0.543877,0.564498,0.431913,0.375161,0.36471,0.596089,0.735398,0.55391,0
0.392503,0.496942,0.433837,0.548299,0.57674,0.486411,0.621376,0.577125,0.503957,0
0.541698,0.616091,0.591441,0.64037,0.701542,0.37141,0.583996,0.624558,0.4145,0
0.41905,0.406255,0.262322,0.425261,0.581699,0.601075,0.339289,0.637266,0.728488,0
0.456784,0.627477,0.340364,0.656556,0.622241,0.300567,0.668086,0.389187,0.620534,0
0.415804,0.568086,0.605078,0.588322,0.568188,0.498898,0.451675,0.779551,0.552293,0
0.393862,0.59894,0.452151,0.492709,0.447333,0.599911,0.416391,0.804631,0.569174,0
0.480777,0.525964,0.360802,0.555659,0.581699,0.253326,0.368866,0.532673,0.550035,0
0.371291,0.555085,0.605509,0.551789,0.519258,0.684875,0.576194,0.602053,0.348844,0
0.505771,0.5208,0.152791,0.456155,0.636467,0.15718,0.430696,0.744334,0.605819,0
0.525881,0.61012,0.458777,0.479605,0.581699,0.412907,0.549906,0.451569,0.469572,0
0.504724,0.580102,0.364535,0.603733,0.608736,0.562673,0.381928,0.672702,0.506258,1
0.387168,0.670875,0.406958,0.484124,0.581699,0.510238,0.330158,0.652975,0.436135,1
0.501095,0.633609,0.263196,0.586057,0.636847,0.417329,0.254426,0.53387,0.718704,1
0.505771,0.721123,0.109238,0.740545,0.820701,0.304356,0.42644,0.548834,0.508356,1
0.431762,0.374472,0.217919,0.477827,0.774755,0.368488,0.675379,0.347441,0.655111,1
0.442761,0.721983,0.509777,0.459252,0.581699,0.6042,0.318886,0.498024,0.401621,1
0.548496,0.474328,0.327095,0.528178,0.581699,0.319118,0.372153,0.466776,0.309992,1
0.575862,0.283916,0.575651,0.343492,0.581699,0.49309,0.187403,0.793891,0.30063,1
0.518271,0.553994,0.529899,0.5652,0.555496,0.538224,0.387189,0.364666,0.476116,1
0.505771,0.696458,0.24802,0.655949,0.747981,0.320836,0.458315,0.568123,0.374394,1
0.485172,0.940163,0.462798,0.505629,0.466091,0.217942,0.260772,0.48818,0.199594,1
0.526298,0.568059,0.134698,0.713719,0.854512,0.257199,0.343799,0.71515,0.422436,1
0.63127,0.538264,0.185355,0.588498,0.57881,0.583085,0.386652,0.703307,0.120454,1
0.507724,0.367049,0.383659,0.520664,0.596859,0.137237,0.575424,0.448694,0.485015,1
0.37783,0.531841,0.352266,0.463898,0.653636,0.301279,0.45906,0.266538,0.585763,1
0.512089,0.4173,0.645306,0.395801,0.487728,0.569272,0.550162,0.532673,0.582941,1
0.549646,0.385857,0.185166,0.602868,0.581699,0.203183,0.410243,0.591835,0.330663,1
0.620939,0.622964,0.266622,0.66732,0.642856,0.636075,0.194751,0.588937,0.612185,1
0.505771,0.498216,0.292122,0.623646,0.717305,0.609879,0.658465,0.569677,0.307626,1
0.499983,0.622838,0.258718,0.571439,0.643946,0.17665,0.57845,0.521873,0.361152,1
0.492709,0.456883,0.267552,0.46974,0.569098,0.272711,0.392604,0.482074,0.574798,1
0.45588,0.599968,0.393044,0.548611,0.581699,0.281709,0.388237,0.543647,0.270632,1
0.708364,0.541081,0.605755,0.55233,0.337854,0.596414,0.126898,0.625439,0.367428,1
0.400645,0.813222,0.437301,0.502603,0.476241,0.458835,0.568915,0.584847,0.360161,1
0.44839,0.647498,0.369197,0.550862,0.581699,0.257407,0.422439,0.40617,0.316348,1
0.505771,0.518098,0.245199,0.567177,0.673783,0.414426,0.425775,0.553349,0.443702,1
0.551022,0.523267,0.31965,0.587441,0.600307,0.343516,0.640499,0.470171,0.562514,1
0.453663,0.416339,0.361482,0.510056,0.711909,0.272084,0.36445,0.529196,0.426745,1
0.568491,0.49837,0.435501,0.573129,0.56313,0.363342,0.338424,0.42002,0.483627,1
0.472728,0.423743,0.220924,0.436279,0.581699,0.233826,0.378627,0.492742,0.443764,1
0.428623,0.411946,0.341356,0.312104,0.489466,0.355454,0.270573,0.57004,0.515451,1
0.456638,0.405296,0.343088,0.387231,0.534774,0.216417,0.561895,0.498259,0.344364,1
0.498376,0.637838,0.327822,0.385342,0.434865,0.341897,0.45388,0.542659,0.173387,1
0.453817,0.620683,0.301183,0.496156,0.520958,0.562956,0.506608,0.759755,0.455872,1
0.429996,0.338914,0.334046,0.51284,0.581699,0.432295,0.23748,0.539931,0.245231,1
0.523585,0.407599,0.239112,0.692178,0.801353,0.389453,0.581446,0.409015,0.271264,1
0.660096,0.400793,0.513537,0.503018,0.581699,0.494076,0.377534,0.755575,0.452369,1
0.470941,0.468569,0.353607,0.34106,0.581699,0.225497,0.464149,0.421541,0.46921,1
0.496305,0.644922,0.107602,0.764382,0.852328,0.358652,0.522804,0.476514,0.50021,1
0.505771,0.592331,0.219197,0.641424,0.822288,0.29862,0.312401,0.361555,0.362052,1
0.505771,0.606814,0.341053,0.54908,0.460992,0.625194,0.477787,0.499113,0.404472,1
0.424166,0.605885,0.172305,0.582665,0.581699,0.777543,0.585349,0.480698,0.46124,1
0.589254,0.665601,0.534884,0.521955,0.430857,0.320791,0.569011,0.560137,0.535986,1
0.49313,0.765691,0.576866,0.35455,0.219433,0.239812,0.450641,0.528376,0.457146,1
0.543262,0.59102,0.152082,0.638544,0.68878,0.25216,0.367098,0.695879,0.775964,1
0.470664,0.22223,0.557861,0.359876,0.535778,0.250248,0.662659,0.532673,0.327304,1
0.536558,0.46132,0.25311,0.601353,0.581699,0.212683,0.583351,0.729538,0.157973,1
0.521532,0.348212,0.761787,0.345736,0.350727,0.464023,0.397526,0.486041,0.323327,1
0.484878,0.488244,0.416056,0.515683,0.634447,0.416907,0.369172,0.573559,0.530525,1
0.505771,0.495513,0.384298,0.361053,0.422352,0.352122,0.307035,0.607024,0.428147,1
0.505771,0.534398,0.620597,0.520247,0.580317,0.44669,0.442398,0.484761,0.360555,1
0.478038,0.554867,0.602766,0.342471,0.43134,0.341324,0.394071,0.463083,0.282117,1
0.430579,0.781221,0.276312,0.706567,0.713862,0.58242,0.706421,0.614878,0.497407,1
0.47971,0.618917,0.276806,0.67037,0.750718,0.292938,0.465693,0.458447,0.180512,1
0.535056,0.562316,0.430669,0.529845,0.522494,0.218344,0.605293,0.540459,0.549165,1
0.505771,0.870313,0.67324,0.404327,0.581699,0.339666,0.451239,0.78793,0.543075,1
0.452613,0.213819,0.250372,0.50876,0.887956,0.347899,0.115641,0.389394,0.549555,1
0.527268,0.565952,0.017258,0.843613,0.984964,0.314516,0.549749,0.441292,0.356971,1
0.518287,0.541248,0.720177,0.384623,0.373336,0.249653,0.227928,0.556839,0.583279,1
0.501844,0.364668,0.343244,0.547192,0.734035,0.419013,0.451958,0.409178,0.623198,1
0.543349,0.494784,0.476453,0.418913,0.370805,0.429306,0.452375,0.73707,0.588856,1
0.498847,0.561584,0.189272,0.571862,0.581699,0.5342,0.53109,0.4958,0.512302,1
0.453359,0.180814,0.318887,0.238801,0.501181,0.562088,0.494026,0.696209,0.581651,1
0.523059,0.663461,0.399978,0.553705,0.553454,0.293481,0.279614,0.405008,0.478724,1
0.484108,0.578975,0.244769,0.456392,0.546542,0.597626,0.401675,0.69306,0.531893,1
0.597883,0.392182,0.441209,0.425789,0.581699,0.306083,0.21579,0.557201,0.24516,1
0.474483,0.44058,0.594103,0.447011,0.481641,0.511619,0.463572,0.575756,0.538705,1
0.444113,0.566847,0.250823,0.579214,0.659737,0.47466,0.474986,0.568813,0.510525,1
0.47358,0.526275,0.590231,0.36179,0.421836,0.243044,0.482236,0.650989,0.359759,1
0.575073,0.450937,0.460014,0.472808,0.53974,0.551574,0.536125,0.733277,0.438163,1
0.601149,0.583601,0.45831,0.581771,0.47817,0.460037,0.400198,0.632949,0.657985,1
0.505771,0.433389,0.389395,0.531093,0.62746,0.402188,0.278026,0.763927,0.433674,1
0.566648,0.570536,0.203788,0.576531,0.574061,0.469,0.516078,0.443495,0.583141,1
0.565543,0.486388,0.254238,0.54098,0.581699,0.192901,0.415464,0.619762,0.441309,1
0.638718,0.610253,0.9222,0.225396,0,0.630281,0.272558,0.568629,0.549118,1
0.502425,0.722512,0.248045,0.56507,0.501708,0.585344,0.587234,0.737168,0.469225,1
0.505771,0.401809,0.737561,0.290636,0.33571,0.381708,0.53204,0.428064,0.502714,1
0.541432,0.644402,0.516022,0.433096,0.581699,0.563819,0.624613,0.629686,0.474501,1
0.605232,0.296737,0.330748,0.537058,0.581699,0.715951,0.501636,0.512744,0.635316,1
0.486887,0.688585,0.391574,0.653934,0.627139,0.516806,0.55073,0.748063,0.534078,1
0.461431,0.609407,0.582122,0.481452,0.507238,0.321076,0.227109,0.623201,0.394327,1
0.444845,0.444315,0.36498,0.361769,0.47838,0.487763,0.712245,0.750943,0.483522,1
0.505771,0.519186,0.299938,0.55721,0.662292,0.50705,0.442921,0.72665,0.5578,1
0.505771,0.537226,0.062745,0.746826,0.947287,0.444051,0.522837,0.532673,0.408947,1
0.402338,0.858078,0.459633,0.531715,0.538206,0.427554,0.368323,0.542852,0.692873,1
0.442232,0.667015,0.483652,0.315389,0.338903,0.537668,0.414641,0.432598,0.352632,1
0.550074,0.268935,0.273502,0.505708,0.63986,0.326551,0.413688,0.555907,0.367836,1
0.505771,0.506403,0.399197,0.683357,0.581699,0.458784,0.339231,0.595238,0.387354,1
0.630903,0.551315,0.406841,0.506118,0.581699,0.476121,0.476339,0.664541,0.37855,1
0.403292,0.623562,0.363423,0.620881,0.73016,0.384313,0.553644,0.246922,0.470506,1
0.523722,0.500497,0.395552,0.540262,0.581699,0.225192,0.488208,0.532673,0.463433,1
0.564053,0.544702,0.149192,0.724701,0.770599,0.156175,0.348682,0.425629,0.650304,1
0.405378,0.657104,0.637889,0.443267,0.581699,0.259845,0.353386,0.474835,0.675263,1
0.42933,0.497391,0.256454,0.611603,0.830854,0.232655,0.694047,0.673119,0.646112,1
0.57043,0.483741,0.400485,0.41768,0.450446,0.44324,0.246839,0.680209,0.32199,1
0.505771,0.785027,0.268446,0.579745,0.581699,0.430749,0.572872,0.625275,0.53962,1
0.511401,0.436688,0.502035,0.401794,0.581699,0.447427,0.512717,0.495818,0.660587,1
0.540371,0.602108,0.179382,0.615004,0.705114,0.280196,0.51609,0.539437,0.706183,1
0.490398,0.667459,0.365559,0.416782,0.581699,0.551044,0.534673,0.736023,0.655364,1
0.409763,0.481911,0.202977,0.591458,0.837644,0.408357,0.390531,0.673111,0.244241,1
0.437791,0.546222,0.359348,0.55072,0.581699,0.49552,0.453203,0.49252,0.451435,1
0.427955,0.50524,0.465995,0.436031,0.593777,0.4349,0.592512,0.550333,0.584113,1
0.694527,0.520383,0.143757,0.735819,0.648764,0.457375,0.425587,0.503713,0.495758,1
0.552594,0.64431,0.314843,0.532786,0.457193,0.441525,0.496315,0.600567,0.425585,1
0.4797,0.528599,0.257544,0.471011,0.526808,0.235712,0.600212,0.685163,0.671158,1
0.569054,0.422556,0.213997,0.557728,0.581699,0.323324,0.571872,0.532673,0.636481,1
0.588754,0.392409,0.389471,0.570427,0.594533,0.414053,0.423979,0.534146,0.393161,1
0.46711,0.609424,0.47054,0.521594,0.520794,0.427727,0.603448,0.440086,0.496578,1
0.48467,0.613783,0.209796,0.408104,0.581699,0.284141,0.499565,0.526332,0.610308,1
0.50057,0.730789,0.423854,0.580958,0.58533,0.388681,0.333543,0.605175,0.601054,1
0.552885,0.478325,0.199599,0.754413,0.830592,0.507642,0.238023,0.530784,0.295587,1
0.565578,0.463943,0.48016,0.554221,0.581699,0.246651,0.349013,0.562856,0.603147,1
0.412341,0.502839,0.433007,0.42713,0.579703,0.229752,0.389895,0.259798,0.511379,1
0.540835,0.455495,0.139799,0.721261,0.872919,0.21745,0.337532,0.7443,0.467061,1
0.623823,0.565719,0.398276,0.488622,0.453593,0.271642,0.555629,0.552117,0.321271,1
0.494133,0.555959,0.448733,0.483583,0.547385,0.475911,0.348022,0.739921,0.774091,1
0.608056,0.399848,0.538068,0.502033,0.502387,0.342978,0.425647,0.343021,0.487166,1
0.46708,0.620938,0.377422,0.534281,0.64325,0.705913,0.327285,0.324803,0.522154,1
0.505771,0.657708,0.522785,0.517362,0.525929,0.224049,0.652045,0.434278,0.772826,1
0.587649,0.823092,0.660458,0.53058,0.319424,0.413021,0.291558,0.638146,0.410131,1
0.519586,0.394204,0.261631,0.571628,0.716359,0.717516,0.387452,0.478189,0.321944,1
0.508499,0.411802,0.528799,0.370812,0.463846,0.452619,0.299163,0.494409,0.73723,1
0.505771,0.420679,0.534339,0.447342,0.535372,0.171656,0.329949,0.655421,0.401703,1
0.424424,0.731728,0.237366,0.472695,0.587438,0.587668,0.526126,0.533931,0.539266,1
0.519922,0.31857,0.358971,0.532645,0.650255,0.522261,0.349272,0.439762,0.520245,1
0.531799,0.374852,0.063167,0.80011,0.987243,0.304437,0.503924,0.600534,0.245,1
0.460178,0.491996,0.185063,0.673874,0.793234,0.355911,0.534416,0.670073,0.272456,1
0.505771,0.520311,0.648235,0.380797,0.452323,0.321171,0.439879,0.739788,0.66929,1
0.494266,0.534753,0.578558,0.471231,0.485147,0.373074,0.374864,0.560717,0.504978,1
0.462312,0.425609,0.392826,0.569159,0.693726,0.326297,0.404756,0.779295,0.507577,1
0.589373,0.435099,0.283993,0.523869,0.552225,0.167749,0.394387,0.491126,0.386663,1
0.505771,0.523168,0.306096,0.610282,0.539704,0.301854,0.493197,0.676426,0.595701,1
0.479079,0.593614,0.171967,0.596101,0.694746,0.392955,0.635313,0.532673,0.225042,1
0.517157,0.387046,0.506085,0.348733,0.375573,0.471326,0.331491,0.532673,0.36166,1
0.466321,0.496921,0.17263,0.506797,0.709528,0.435309,0.437599,0.81196,0.592923,1
0.502274,0.464409,0.202492,0.585879,0.581699,0.682578,0.422088,0.48958,0.241173,1
0.535314,0.572228,0.406152,0.511128,0.565148,0.23014,0.551305,0.586058,0.402657,1
0.49696,0.60556,0.241133,0.520169,0.567618,0.501997,0.582654,0.839424,0.650794,1
0.505771,0.478709,0.267113,0.630438,0.536424,0.2556,0.511632,0.532673,0.35496,1
0.497309,0.5722,0.573145,0.37078,0.357156,0.312271,0.437454,0.532673,0.58173,1
0.464973,0.545273,0.32511,0.50965,0.636342,0.509261,0.339418,0.518613,0.444852,1
0.576378,0.52077,0.268176,0.60166,0.629428,0.413942,0.386734,0.391615,0.297104,1
0.515241,0.603337,0.444236,0.513761,0.564489,0.482685,0.604166,0.532673,0.378794,1
0.48506,0.813115,0.230315,0.749222,0.68131,0.75044,0.275356,0.73554,0.375927,1
0.498229,0.464246,0.580896,0.402525,0.457497,0.383967,0.309781,0.53287,0.719698,1
0.530159,0.565455,0.65391,0.410983,0.362441,0.38522,0.26152,0.42415,0.574118,1
0.464648,0.64923,0.273555,0.515575,0.537583,0.529166,0.62556,0.646791,0.272452,1
0.472704,0.46011,0.54058,0.522128,0.560089,0.521871,0.525629,0.483537,0.595831,1
0.483555,0.474804,0.273524,0.524438,0.684333,0.206207,0.632324,0.504053,0.453131,1
0.452982,0.335619,0.291224,0.626954,0.819822,0.290248,0.42584,0.466348,0.485727,1
0.504205,0.522744,0.265196,0.632782,0.678501,0.492272,0.397487,0.136212,0.470284,1
0.538521,0.765557,0.438025,0.520555,0.391452,0.298521,0.477042,0.473957,0.752008,1
0.505771,0.419799,0.594432,0.403986,0.442076,0.596505,0.467261,0.633857,0.604215,1
0.535058,0.549651,0.107585,0.640495,0.581699,0.452887,0.338983,0.488374,0.428506,1
0.431245,0.651459,0.207989,0.636,0.748175,0.218415,0.188597,0.328183,0.405411,1
0.505771,0.403578,0.137922,0.606849,0.842854,0.506401,0.503983,0.601545,0.367203,1
0.47905,0.672833,0.452508,0.589389,0.591173,0.457674,0.472161,0.51422,0.552445,1
0.505771,0.39521,0.43616,0.35556,0.462797,0.6518,0.462724,0.427901,0.616312,1
0.505771,0.503945,0.118807,0.712502,0.786971,0.186908,0.408483,0.579652,0.504115,1
0.482775,0.619247,0.36482,0.535768,0.499049,0.351518,0.637499,0.430607,0.414062,1
0.53477,0.3764,0.505847,0.331278,0.581699,0.297436,0.641323,0.425104,0.245496,0
0.493152,0.658446,0.172659,0.582434,0.662717,0.580047,0.40247,0.322955,0.508947,0
0.505771,0.391127,0.69445,0.428761,0.909772,0.480366,0.708083,0.619814,0.264039,0
0.524924,0.798802,0.254445,0.80021,0.581699,0.63,0.429431,0.437127,0.619351,0
0.560433,0.640667,0.376696,0.436037,0.486897,0.361081,0.429377,0.343473,0.19625,0
0.505771,0.660841,0.322377,0.568035,0.444372,0.542786,0.338196,0.685563,0.314571,0
0.441415,0.73053,0.24744,0.599785,0.409302,0.535345,0.287221,0.559451,0.426229,0
0.482548,0.587359,0.221662,0.564025,0.584096,0.555359,0.656672,0.651951,0.474479,0
0.505771,0.60292,0.458833,0.25676,0.581699,0.528652,0.518847,0.633389,0.541178,0
0.519043,0.185065,0.59385,0.531257,0.835687,0.562026,0.197731,0.612941,0.662268,0
0.587012,0.248937,0.363587,0.363871,0.581699,0.396735,0.17367,0.732223,0.528729,0
0.498576,0.423281,0.284117,0.479652,0.692407,0.544225,0.362673,0.38919,0.476359,0
0.455856,0.683782,0.306406,0.621097,0.581699,0.577068,0.535768,0.625509,0.349602,0
0.474858,0.523808,0.243905,0.415629,0.581699,0.506355,0.507214,0.452649,0.44995,0
0.421424,0.574851,0.493519,0.711871,0.520646,0.578557,0.15732,0.440746,0.45547,0
0.518636,0.513783,0.345945,0.487269,0.646598,0.365128,0.467111,0.651819,0.554703,0
0.39828,0.638183,0.233674,0.730894,0.300002,0.125004,0.385038,0.476911,0.537804,0
0.390529,0.542623,0.206255,0.697682,0.620461,0.303732,0.404695,0.538865,0.428781,0
0.435001,0.614106,0.200931,0.700219,0.536837,0.398601,0.327772,0.245232,0.282383,0
0.586103,0.356794,0.289959,0.487551,0.654467,0.417779,0.523249,0.811072,0.432959,0
0.547893,0.275324,0.550398,0.380773,0.743531,0.492226,0.632135,0.666602,0.469621,0
0.485078,0.58651,0.325553,0.426771,0.452679,0.192041,0.388021,0.458905,0.308951,0
0.429055,0.650879,0.327696,0.611696,0.274171,0.165256,0.285471,0.421071,0.488704,0
0.505771,0.569305,0.535748,0.441744,0.555364,0.276568,0.087092,0.571567,0.653286,0
0.452596,0.604443,0.234765,0.48786,0.531195,0.331046,0.383885,0.672802,0.442201,0
0.533803,0.637788,0.321997,0.424118,0.536058,0.714934,0.435131,0.719732,0.459012,0
0.505771,0.604882,0.350544,0.620034,0.581699,0.510496,0.517506,0.587628,0.528718,0
0.52715,0.690955,0.271591,0.528361,0.503317,0.519658,0.423543,0.747404,0.676962,0
0.719117,0.352502,0.646817,0.32496,0.743999,0.408435,0.592291,0.532673,0.43993,0
0.422567,0.822772,0.109132,0.76066,0.337032,0.244384,0.37901,0.314051,0.214757,0
0.505771,0.450731,0.634584,0.627286,0.729919,0.377642,0.574774,0.591496,0.225603,0
0.437489,0.378173,0.242521,0.489925,0.719593,0.361372,0.552565,0.555158,0.52221,0
0.505771,0.325804,0.332856,0.282514,0.751879,0.592676,0.653239,0.399896,0.35024,0
0.562607,0.738014,0.253178,0.604598,0.581699,0.36683,0.549574,0.474664,0.465855,0
0.430075,0.474412,0.306133,0.771943,0.581699,0.383106,0.407733,0.48784,0.60712,0
0.505771,0.528617,0.337789,0.546346,0.654564,0.412586,0.558894,0.303167,0.447798,0
0.505771,0.432601,0.237849,0.504881,0.399703,0.620526,0.44595,0.623163,0.375269,0
0.470389,0.433578,0.490743,0.716736,0.600078,0.434714,0.805913,0.584624,0.534248,0
0.453048,0.397596,0.34083,0.541924,0.539309,0.296473,0.452841,0.516538,0.592284,0
0.473785,0.692413,0.205367,0.547582,0.574671,0.472583,0.668235,0.587882,0.550359,0
0.385764,0.545852,0.158408,0.589197,0.581699,0.563798,0.582717,0.621804,0.398135,0
0.532868,0.630817,0.413093,0.514673,0.581699,0.449649,0.417206,0.465237,0.182195,0
0.479273,0.365702,0.338245,0.335153,0.581699,0.382715,0.61804,0.322545,0.044928,0
0.57535,0.695369,0.463407,0.37142,0.581699,0.687091,0.596859,0.451193,0.392207,0
0.383228,0.692291,0.261746,0.560151,0.359471,0.370808,0.393297,0.213835,0.327245,0
0.494313,0.743296,0.176752,0.754707,0.445259,0.327258,0.571678,0.348275,0.345548,0
0.501818,0.497122,0.514545,0.381998,0.581699,0.660161,0.467167,0.450684,0.279269,0
0.569589,0.458188,0.435549,0.446461,0.593529,0.290744,0.442819,0.606816,0.330109,0
0.573647,0.635479,0.292481,0.657731,0.526862,0.474744,0.378006,0.631271,0.357134,0
0.543861,0.603061,0.28367,0.608949,0.581699,0.354289,0.10926,0.568669,0.375864,0
0.54597,0.589168,0.354062,0.718374,0.581699,0.273054,0.255311,0.510368,0.437164,0
0.552237,0.441136,0.624489,0.444341,0.478167,0.602239,0.531461,0.60174,0.702266,0
0.447743,0.389021,0.373186,0.507314,0.459344,0.419223,0.447562,0.528576,0.366743,0
0.526422,0.392513,0.311338,0.397888,0.769651,0.366944,0.611056,0.510787,0.448425,0
0.505771,0.702772,0.41663,0.418204,0.582057,0.358156,0.472458,0.269186,0.509054,0
0.451455,0.429427,0.331012,0.567825,0.63997,0.421183,0.482527,0.367551,0.24175,0
0.520721,0.572309,0.423514,0.374629,0.649927,0.387143,0.220708,0.510786,0.6146,0
0.454037,0.425062,0.28269,0.62569,0.613995,0.436254,0.503044,0.375488,0.371625,0
0.569576,0.409124,0.478716,0.164698,0.554087,0.331775,0.631951,0.434381,0.495195,0
0.353108,0.798358,0.189627,0.667387,0.581699,0.412565,0.500107,0.178577,0.684599,0
0.550026,0.628019,0.477968,0.470003,0.550379,0.460732,0.414844,0.62543,0.441763,0
0.432472,0.655681,0.162461,0.440859,0.505061,0.454683,0.575829,0.524105,0.650248,0
0.30153,0.265253,0.559044,0.595608,0.802717,0.446423,0.467274,0.518112,0.534829,0
0.610421,0.754077,0.504638,0.255795,0.581699,0.429126,0.443793,0.273485,0.678178,0
0.553727,0.488345,0.218939,0.506086,0.592999,0.25659,0.499277,0.74246,0.619306,0
0.399152,0.62891,0.138071,0.623867,0.486379,0.404339,0.163932,0.648211,0.324375,0
0.617848,0.475737,0.298538,0.539242,0.645578,0.258841,0.501174,0.673731,0.308505,0
0.564233,0.508788,0.523589,0.363582,0.544079,0.382378,0.67715,0.374611,0.566869,0
0.425162,0.324487,0.456193,0.546298,0.740872,0.424021,0.504743,0.553551,0.627674,0
0.574299,0.559963,0.189481,0.536071,0.486885,0.41805,0.190368,0.730345,0.334872,0
0.308087,0.521188,0.204411,0.616796,0.44299,0.55673,0.432999,0.614187,0.467686,0
0.479073,0.58887,0.237635,0.583741,0.581699,0.650791,0.223278,0.628735,0.324377,0
0.418111,0.505549,0.31967,0.490316,0.581699,0.539142,0.669376,0.521669,0.436164,0
0.629814,0.465458,0.375206,0.499324,0.676515,0.648046,0.211997,0.735874,0.456438,0
0.505771,0.449788,0.638467,0.341175,0.640412,0.350089,0.690118,0.784353,0.257611,0
0.505771,0.530103,0.317708,0.564923,0.606974,0.247005,0.624965,0.624461,0.384102,0
0.534029,0.720923,0.439839,0.73894,0.602685,0.276723,0.537076,0.623591,0.383474,0
0.549392,0.390847,0.595297,0.57446,0.784504,0.621492,0.536972,0.62342,0.490168,0
0.526241,0.467562,0.268325,0.603584,0.581699,0.303014,0.325016,0.297134,0.447573,0
0.637708,0.510071,0.358238,0.30534,0.702594,0.449467,0.245133,0.74711,0.760891,0
0.401516,0.631928,0.17737,0.66203,0.527998,0.253327,0.655653,0.678549,0.376395,0
0.46076,0.559192,0.449241,0.415119,0.531505,0.684697,0.476732,0.532673,0.716873,0
0.540466,0.572975,0.500815,0.584316,0.639649,0.373892,0.379128,0.511347,0.345083,0
0.436831,0.702027,0.253584,0.762141,0.597682,0.394915,0.731994,0.5057,0.429878,0
0.542516,0.511227,0.534404,0.500477,0.670989,0.25381,0.447637,0.589802,0.387144,0
0.505771,0.840795,0.18158,0.644548,0.525984,0.500376,0.332568,0.553595,0.341515,0
0.509373,0.429744,0.30619,0.574432,0.581699,0.576189,0.545124,0.376426,0.616977,0
0.528552,0.763852,0.299051,0.402752,0.598922,0.302843,0.489617,0.586316,0.443396,0
0.500177,0.440784,0.331618,0.76587,0.581699,0.482922,0.291683,0.455808,0.359697,0
0.38181,0.693086,0.164095,0.584783,0.433973,0.550603,0.39941,0.702608,0.172601,0
0.441854,0.46198,0.359208,0.568023,0.581699,0.520422,0.44231,0.411799,0.710101,0
0.433578,0.413861,0.434168,0.46102,0.581699,0.532269,0.635269,0.658825,0.61438,0
0.506826,0.541557,0.491152,0.440932,0.509057,0.476465,0.531139,0.250012,0.644976,0
0.505771,0.516263,0.269532,0.522851,0.581699,0.400441,0.473006,0.481918,0.31061,0
0.280611,0.523171,0.279236,0.574592,0.504159,0.392758,0.282705,0.362989,0.682707,0
0.453784,0.71607,0.222272,0.690993,0.581699,0.388342,0.395407,0.473049,0.511532,0
0.428509,0.624915,0.312363,0.444434,0.384299,0.552572,0.543341,0.369664,0.680086,0
0.635685,0.582805,0.288873,0.347677,0.58396,0.349169,0.467385,0.385857,0.468636,0
0.52681,0.534785,0.467059,0.36964,0.627744,0.548305,0.461597,0.619463,0.695291,0
0.64138,0.496486,0.404661,0.462825,0.585793,0.531774,0.232957,0.512779,0.532226,0
0.609456,0.613083,0.491698,0.465516,0.573753,0.445357,0.371483,0.447695,0.175853,0
0.515253,0.468668,0.564909,0.376538,0.450833,0.263554,0.311398,0.62082,0.387121,0
0.505771,0.497783,0.230636,0.608838,0.584476,0.508598,0.53155,0.592009,0.592382,0
0.635398,0.217458,0.448259,0.454898,0.940563,0.460683,0.451921,0.629638,0.624737,0
0.470197,0.622988,0.35531,0.51945,0.624662,0.27931,0.497255,0.55365,0.419527,0
0.505771,0.568782,0.235517,0.644174,0.657297,0.311508,0.496674,0.472227,0.553508,0
0.505771,0.410472,0.801304,0.469072,0.796811,0.256079,0.467722,0.518465,0.347441,0
0.427614,0.828658,0.343284,0.672284,0.581699,0.301872,0.367179,0.742238,0.68094,0
0.488659,0.43253,0.458785,0.529449,0.53913,0.613265,0.738295,0.628659,0.688668,0
0.505771,0.40043,0.351285,0.395647,0.581699,0.52026,0.640957,0.644682,0.449191,0
0.510437,0.486058,0.540924,0.628551,0.693682,0.530945,0.508428,0.422474,0.628701,0
0.505771,0.690168,0.353688,0.673928,0.537376,0.44225,0.362656,0.478961,0.471411,0
0.536255,0.453666,0.295663,0.513169,0.631816,0.342027,0.324837,0.552597,0.425979,0
0.571227,0.607154,0.332554,0.457096,0.519864,0.580662,0.593989,0.564271,0.636731,0
0.369596,0.677918,0.187594,0.517359,0.528326,0.394535,0.443359,0.287563,0.423359,0
0.505771,0.521301,0.375189,0.530736,0.459361,0.321158,0.401513,0.5544,0.48562,0
0.462792,0.484333,0.457177,0.532922,0.688592,0.330162,0.564849,0.532673,0.310001,0
0.557965,0.767014,0.338076,0.470431,0.45491,0.419071,0.284738,0.575727,0.585379,0
0.53123,0.708392,0.326151,0.451637,0.503278,0.405996,0.308919,0.517525,0.456962,0
0.568134,0.473842,0.301387,0.418594,0.679537,0.305688,0.629832,0.492648,0.266633,0
0.456898,0.712,0.196335,0.504309,0.581699,0.538534,0.591496,0.532673,0.517725,0
0.505771,0.583749,0.363233,0.395479,0.593879,0.628504,0.2981,0.680113,0.405454,0
0.575581,0.521763,0.475771,0.452225,0.646663,0.169655,0.398705,0.525493,0.317756,0
0.505771,0.371454,0.327763,0.755685,0.721849,0.303748,0.567184,0.430479,0.109449,0
0.505771,0.629518,0.429706,0.359905,0.581699,0.362826,0.723584,0.56407,0.647643,0
0.678376,0.279481,0.547733,0.349327,0.847041,0.609824,0.680855,0.39811,0.71698,0
0.570336,0.267093,0.663131,0.426211,0.89867,0.274589,0.406851,0.474852,0.589503,0
0.447222,0.808998,0.135478,0.749125,0.446914,0.541146,0.410975,0.174274,0.624507,0
0.496986,0.623188,0.326644,0.524626,0.504636,0.436973,0.583416,0.451864,0.593259,0
0.690226,0.305703,0.395149,0.303886,0.581699,0.432664,0.610861,0.524269,0.722295,0
0.480908,0.5453,0.550021,0.551449,0.636809,0.244607,0.656724,0.686618,0.460466,0
0.349004,0.8179,0.249164,0.519231,0.390768,0.67866,0.578603,0.639775,0.308068,0
0.686444,0.397173,0.552217,0.335579,0.581699,0.531417,0.338998,0.532673,0.664014,0
0.608467,0.293195,0.520428,0.446712,0.935831,0.651656,0.527824,0.703654,0.509958,0
0.496485,0.559949,0.351174,0.451567,0.63433,0.412166,0.669866,0.393461,0.48175,0
0.430216,0.447239,0.17411,0.614401,0.502219,0.572462,0.384851,0.504858,0.419378,0
0.643677,0.437035,0.567174,0.218204,0.771784,0.356602,0.550735,0.403925,0.533334,0
0.567626,0.833122,0.392787,0.564319,0.410147,0.219204,0.367672,0.562068,0.300337,0
0.550687,0.516413,0.535078,0.423175,0.678242,0.378348,0.49963,0.532673,0.508683,0
0.434401,0.586262,0.160889,0.708789,0.581699,0.400493,0.22208,0.814693,0.48403,0
0.58187,0.522142,0.331423,0.40117,0.581699,0.462435,0.27651,0.459393,0.704852,0
0.581562,0.591038,0.412314,0.629261,0.727882,0.245487,0.355691,0.68604,0.508026,0
0.55024,0.59455,0.205907,0.696149,0.621056,0.729514,0.31963,0.733241,0.620557,0
0.505771,0.368567,0.449327,0.650388,0.442989,0.187168,0.518645,0.50315,0.438893,0
0.660918,0.437476,0.820249,0.434681,0.81371,0.382122,0.373558,0.49909,0.349893,0
0.431975,0.471585,0.46486,0.61232,0.581699,0.35879,0.510151,0.24191,0.215517,0
0.43949,0.448665,0.404844,0.615615,0.55343,0.392773,0.332614,0.527143,0.558344,0
0.648209,0.498684,0.349928,0.553846,0.753334,0.276067,0.17081,0.532673,0.451972,0
0.531181,0.434893,0.519072,0.590557,0.581699,0.379622,0.483695,0.555847,0.57622,0
0.505771,0.769841,0.190927,0.711033,0.426102,0.503278,0.365993,0.594336,0.379722,0
0.509293,0.827909,0.15039,0.631229,0.473308,0.353184,0.617735,0.759993,0.101379,0
0.485152,0.429328,0.286697,0.361534,0.507776,0.330705,0.495712,0.777714,0.490194,0
0.505771,0.66378,0.239648,0.725363,0.581699,0.345696,1,0.64006,0.456595,0
0.634688,0.451256,0.308541,0.481511,0.781478,0.381543,0.590942,0.617329,0.291794,0
0.676808,0.370435,0.529456,0.389969,0.581699,0.445423,0.449347,0.576788,0.614774,0
0.505771,0.440822,0.340019,0.407985,0.782157,0.453728,0.388993,0.578407,0.612785,0
0.513079,0.644502,0.07843,0.448506,0.660827,0.198489,0.127857,0.654832,0.483347,0
0.439817,0.393206,0.420593,0.61144,0.480618,0.615195,0.465766,0.546663,0.627747,0
0.461991,0.6865,0.120439,0.742775,0.242765,0.305782,0.467921,0.437306,0.266792,0
0.505771,0.418958,0.403829,0.471428,0.73662,0.546997,0.463513,0.682002,0.539095,0
0.534867,0.471254,0.401685,0.646677,0.682357,0.360901,0.457834,0.391264,0.382688,0
0.52311,0.495858,0.340248,0.508098,0.563193,0.346254,0.235067,0.726696,0.651999,0
0.505771,0.748045,0.217504,0.694842,0.361018,0.652416,0.441063,0.786747,0.305735,0
0.466485,0.328539,0.309552,0.547628,0.581699,0.540624,0.541684,0.532673,0.327403,0
0.495105,0.396853,0.582417,0.542805,0.726229,0.379751,0.599933,0.580053,0.529275,0
0.555332,0.534299,0.2218,0.411047,0.581699,0.245553,0.638733,0.532673,0.46546,0
0.579107,0.457876,0.442592,0.492495,0.639255,0.260078,0.538582,0.532673,0.604613,0
0.45049,0.629463,0.362819,0.532396,0.440234,0.296271,0.676681,0.495677,0.599201,0
0.505771,0.429124,0.37072,0.421424,0.711231,0.511177,0.416968,0.505404,0.49521,0
0.47212,0.612989,0.289673,0.577167,0.617234,0.497709,0.355112,0.328689,0.404452,0
0.473729,0.672151,0.155796,0.625032,0.49236,0.484181,0.425473,0.523931,0.37696,0
0.505771,0.724475,0.305694,0.527153,0.50007,0.416133,0.404525,0.48337,0.53648,0
0.40834,0.542896,0.202288,0.653625,0.44886,0.286085,0.577547,0.467894,0.497386,0
0.55289,0.490073,0.3184,0.665549,0.719658,0.537831,0.255439,0.463561,0.395409,0
0.448377,0.365459,0.37099,0.366625,0.581699,0.512599,0.283684,0.495674,0.410157,0
0.571884,0.251343,0.734247,0.376774,0.581699,0.325614,0.430083,0.702925,0.178957,0
0.465215,0.50022,0.425927,0.500207,0.454547,0.39978,0.410906,0.672666,0.431076,0
0.4453,0.65337,0.359147,0.71261,0.581699,0.296745,0.415317,0.506449,0.460483,0
0.519796,0.534832,0.294701,0.451658,0.613241,0.386775,0.508036,0.618595,0.658225,0
0.431751,0.595394,0.490438,0.576305,0.568607,0.436493,0.322599,0.532673,0.695364,0
0.474502,0.572382,0.3315,0.434921,0.523687,0.479506,0.529576,0.417123,0.4273,0
0.36789,0.504653,0.30103,0.522294,0.581699,0.346334,0.590194,0.471305,0.509932,0
0.436468,0.432386,0.344773,0.573718,0.517721,0.278297,0.437694,0.768742,0.872482,0
0.559366,0.489829,0.308836,0.504975,0.600164,0.440627,0.329272,0.609739,0.44583,0
0.498623,0.555095,0.501457,0.457478,0.746148,0.421443,0.2631,0.385459,0.753946,0
0.610913,0.617977,0.635561,0.519351,0.695241,0.278185,0.64693,0.430936,0.281877,0
0.46067,0.828151,0.136056,0.575314,0.406776,0.354802,0.531736,0.435385,0.428328,0
0.528006,0.457383,0.326153,0.686413,0.724702,0.224865,0.809107,0.652201,0.440246,0
0.5972,0.619197,0.466311,0.405848,0.514974,0.50724,0.323546,0.397803,0.428427,0
0.544275,0.239661,0.606804,0.470299,0.70697,0.181629,0.568216,0.390965,0.44047,0
0.386036,0.767057,0.161679,0.727687,0.340061,0.376714,0.510046,0.527878,0.481788,0
0.505665,0.324911,0.393411,0.419076,0.865362,0.28196,0.264902,0.710605,0.775794,0
0.505771,0.67617,0.528282,0.492007,0.622066,0.42522,0.414866,0.4482,0.538134,0
0.511551,0.692445,0.219351,0.698405,0.441461,0.519854,0.560777,0.597472,0.465111,0
0.489639,0.371507,0.260764,0.421354,0.700844,0.295284,0.364709,0.606519,0.659671,0
0.522111,0.716045,0.3605,0.576405,0.681869,0.517176,0.393683,0.487327,0.426813,0
0.665248,0.31089,0.684029,0.491275,0.818808,0.150943,0.312959,0.606011,0.575461,0
0.505771,0.612421,0.437449,0.472137,0.822355,0.684917,0.67788,0.401036,0.576862,0
0.505771,0.737023,0.500385,0.471973,0.581699,0.275121,0.586533,0.600265,0.362105,0
0.441996,0.733047,0.202955,0.461935,0.381411,0.163119,0.46563,0.4615,0.396329,0
0.505771,0.702059,0.182383,0.404225,0.393945,0.247743,0.24775,0.71345,0.444777,0
0.568953,0.377631,0.409706,0.528692,0.634366,0.605402,0.52079,0.418057,0.366985,0
0.661742,0.409866,0.316664,0.284677,0.817254,0.430718,0.490153,0.771258,0.326247,0
0.55386,0.529641,0.307002,0.60705,0.707296,0.727456,0.258231,0.364941,0.436812,0
0.670992,0.744698,0.21064,0.533432,0.581699,0.327617,0.467333,0.405943,0.302243,0
0.584006,0.559036,0.353593,0.382704,0.543305,0.495436,0.514469,0.494205,0.50337,0
0.59555,0.43903,0.503201,0.39923,0.581699,0.211483,0.472409,0.329824,0.378937,0
0.505771,0.580339,0.191152,0.572411,0.558568,0.560574,0.567542,0.517287,0.257804,0
0.513645,0.376778,0.385188,0.693731,0.780581,0.496002,0.562614,0.62288,0.533304,0
0.615264,0.683779,0.337264,0.569124,0.70948,0.414812,0.437091,0.532673,0.472532,0
0.556646,0.762538,0.280389,0.619902,0.347651,0.451541,0.281879,0.434014,0.366661,0
0.277063,0.472559,0.354915,0.549336,0.483599,0.464835,0.392794,0.506442,0.657537,0
0.505771,0.42397,0.409084,0.314148,0.629446,0.406059,0.506557,0.367034,0.429907,0
0.284163,0.41128,0.231714,0.630833,0.517839,0.407171,0.711551,0.629028,0.435161,0
0.426005,0.702229,0.358705,0.458405,0.581699,0.533406,0.420421,0.519067,0.613863,0
0.538004,0.500829,0.396245,0.425761,0.581699,0.371574,0.493113,0.600693,0.445939,0
0.516681,0.667879,0.267633,0.447831,0.581699,0.514704,0.24861,0.284727,0.421444,0
0.505771,0.563597,0.190114,0.672884,0.677593,0.346381,0.43647,0.471228,0.32214,0
0.505771,0.246511,0.75126,0.386482,0.876606,0.420617,0.329871,0.428997,0.522313,0
0.534338,0.252547,0.46033,0.340573,0.81202,0.508125,0.618399,0.613381,0.428224,0
0.319792,0.685005,0.435465,0.351519,0.224101,0.481755,0.537383,0.59465,0.544088,0
0.505771,0.580209,0.407004,0.467929,0.615266,0.417472,0.771893,0.743049,0.243758,0
0.505771,0.416522,0.467433,0.56902,0.706528,0.319641,0.460157,0.798142,0.572318,0
0.451006,0.280806,0.505592,0.419721,0.581699,0.376298,0.62158,0.587075,0.550929,0
0.505771,0.675616,0.279064,0.67276,0.386092,0.228187,0.327552,0.874977,0.527876,0
0.630186,0.613005,0.439828,0.54561,0.581699,0.354169,0.52703,0.633536,0.56071,0
0.494475,0.501962,0.2358,0.746366,0.602409,0.663282,0.77648,0.51644,0.269872,0
0.505771,0.443399,0.414082,0.399632,0.750687,0.31178,0.560165,0.483832,0.408646,0
0.493181,0.230089,0.536239,0.177633,0.680018,0.412279,0.380028,0.265787,0.682342,0
0.467716,0.46637,0.624682,0.552881,0.423524,0.191722,0.659867,0.65414,0.847084,0
0.470077,0.617016,0.396671,0.429366,0.515958,0.515818,0.353802,0.387905,0.389747,0
0.561761,0.619246,0.373111,0.554208,0.627567,0.407236,0.482222,0.583067,0.403844,0
0.438351,0.378511,0.332326,0.636858,0.724812,0.318496,0.441138,0.77757,0.61535,0
0.496216,0.440519,0.282715,0.474166,0.733743,0.333192,0.498015,0.59442,0.217468,0
0.443094,0.607265,0.477874,0.601399,0.683823,0.241813,0.308347,0.523849,0.385313,0
0.505771,0.698978,0.620238,0.395186,0.581699,0.311428,0.433521,0.584389,0.333237,0
0.598084,0.479119,0.356313,0.380669,0.597937,0.376339,0.440501,0.889918,0.252662,0
0.505771,0.57264,0.194877,0.523901,0.523851,0.337565,0.369284,0.380617,0.676171,0
0.422946,0.556823,0.280373,0.501307,0.426674,0.348016,0.346949,0.253349,0.434255,0
0.6307,0.611879,0.285882,0.587422,0.705205,0.210563,0.536809,0.516553,0.562278,0
0.505771,0.508471,0.215185,0.54525,0.581699,0.570217,0.610639,0.637763,0.732584,0
0.488016,0.423815,0.224839,0.446496,0.433707,0.364591,0.484162,0.353958,0.320555,0
0.66295,0.611101,0.596019,0.278004,0.581699,0.352843,0.645014,0.645613,0.495363,0
0.532589,0.649661,0.14518,0.420683,0.581699,0.412062,0.301382,0.540038,0.535016,0
0.506304,0.454338,0.41175,0.51579,0.642708,0.204925,0.438229,0.532673,0.33667,0
0.403473,0.433811,0.233588,0.577953,0.581699,0.290821,0.325278,0.604815,0.741162,0
0.306712,0.525691,0.398642,0.61915,0.375982,0.5148,0.32948,0.42902,0.69108,0
0.691289,0.511211,0.428228,0.291361,0.758185,0.250966,0.563908,0.73566,0.298677,0
0.618765,0.457394,0.328573,0.413651,0.882843,0.486395,0.53959,0.72355,0.693912,0
0.421242,0.451962,0.496737,0.64952,0.751511,0.428466,0.540677,0.598773,0.285801,0
0.67816,0.82482,0.353966,0.384635,0.669495,0.698764,0.438161,0.497977,0.3288,1
0.505771,0.457185,0.2955,0.567174,0.43632,0.395481,0.689678,0.635768,0.516405,1
0.505728,0.501987,0.642137,0.661792,0.44662,0.305065,0.21385,0.315473,0.00798,1
0.539989,0.714067,0.480193,0.649384,0.581699,0.169608,0.300649,0.867038,0.586217,1
0.502885,0.55006,0.364241,0.595035,0.581699,0.612027,0.478581,0.467905,0.46926,1
0.575217,0.596141,0.603643,0.619611,0.347821,0.57954,0.650062,0.588267,0.35008,1
0.50317,0.660778,0.2012,0.585971,0.742741,0.658716,0.51934,0.288244,0.534449,1
0.450707,0.312733,0.504734,0.518482,0.349711,0.348993,0.574713,0.571494,0.407079,1
0.443112,0.332607,0.104707,0.275915,0.581699,0.734521,0.427899,0.548106,0.539903,1
0.491386,0.606836,0.331467,0.679706,0.546496,0.219111,0.393766,0.640539,0.614572,1
0.55392,0.592287,0.304338,0.418141,0.70302,0.339575,0.479257,0.345296,0.695479,1
0.565476,0.558681,0.642139,0.561522,0.418165,0.439105,0.598541,0.563853,0.534164,1
0.457528,0.494883,0.331745,0.633916,0.673739,0.642036,0.430988,0.554235,0.582704,1
0.556854,0.695872,0.451977,0.479373,0.645315,0.529188,0.631887,0.400695,0.529755,1
0.497427,0.482312,0.206173,0.475311,0.581699,0.309574,0.541365,0.531913,0.574753,1
0.497704,0.495123,0.214758,0.47794,0.68968,0.440241,0.474492,0.529694,0.651014,1
0.473057,0.538409,0.222962,0.47057,0.733905,0.226223,0.366221,0.419174,0.786404,1
0.526428,0.68571,0.306658,0.55205,0.655996,0.307038,0.606143,0.466756,0.380762,1
0.505771,0.315131,0.127341,0.38905,0.581699,0.731178,0.270243,0.808016,0.363762,1
0.496062,0.547874,0.272275,0.468838,0.484394,0.505572,0.492177,0.490079,0.527725,1
0.377486,0.367913,0.177474,0.506338,0.587052,0.532162,0.443423,0.488442,0.480288,1
0.489389,0.54375,0.246743,0.555336,0.581699,0.335863,0.351237,0.636188,0.65902,1
0.554299,0.575921,0.557073,0.59322,0.483286,0.289752,0.657117,0.648082,0.593785,1
0.52004,0.65692,0.482216,0.588573,0.549014,0.369058,0.496865,0.678496,0.277897,1
0.488161,0.489758,0.350533,0.474023,0.55947,0.37746,0.548148,0.598113,0.228558,1
0.480641,0.506981,0.427791,0.634494,0.593306,0.537707,0.593478,0.619768,0.594401,1
0.572601,0.753839,0.501326,0.65831,0.581699,0.456434,0.340774,0.750728,0.73171,1
0.490351,0.447586,0.330735,0.526189,0.67307,0.383804,0.452256,0.412658,0.575486,1
0.414927,0.399432,0.125509,0.495357,0.380637,0.343115,0.582415,0.557537,0.406491,1
0.6042,0.704904,0.476079,0.425149,0.525197,0.257224,0.616705,0.679634,0.449505,1
0.499095,0.640579,0.216465,0.43203,0.581699,0.521705,0.525725,0.586768,0.457609,1
0.520624,0.676646,0.513841,0.640461,0.576195,0.53958,0.384113,0.252016,0.393531,1
0.579739,0.643223,0.265879,0.38659,0.581699,0.411138,0.377912,0.739223,0.203444,1
0.533137,0.609546,0.440504,0.581676,0.721411,0.388592,0.481881,0.456093,0.685544,1
0.536597,0.642165,0.288552,0.648378,0.581699,0.508619,0.446298,0.59909,0.390585,1
0.458222,0.525935,0.311776,0.508282,0.581699,0.608973,0.529557,0.501335,0.874079,1
0.504281,0.476522,0.643016,0.64494,0.432878,0.592435,0.329329,0.609349,0.283596,1
0.505771,0.479973,0.416742,0.542881,0.581699,0.226646,0.30798,0.335361,0.039667,1
0.530364,0.569673,0.300265,0.554403,0.537406,0.275333,0.538113,0.761527,0.209638,1
0.481616,0.586834,0.249039,0.555801,0.630775,0.397598,0.449091,0.563574,0.664525,1
0.54878,0.617925,0.506181,0.600365,0.581699,0.722589,0.382921,0.620076,0.395676,1
0.502976,0.474637,0.412089,0.502603,0.532436,0.361725,0.358509,0.588326,0.31192,1
0.513234,0.59868,0.415789,0.609825,0.635937,0.443814,0.257864,0.607348,0.285338,1
0.471235,0.523611,0.405844,0.54345,0.757717,0.559664,0.478751,0.643443,0.542315,1
0.49349,0.498789,0.273279,0.473765,0.631608,0.442183,0.368312,0.621711,0.613339,1
0.505771,0.443769,0.606711,0.600848,0.317863,0.477495,0.629184,0.509334,0.401539,1
0.505771,0.429686,0.184643,0.6242,0.581699,0.328413,0.199305,0.535031,0.407088,1
0.448707,0.409423,0.275412,0.499302,0.500224,0.424864,0.466474,0.328908,0.568676,1
0.502625,0.591011,0.221512,0.62828,0.606477,0.538702,0.483674,0.555365,0.347017,1
0.525922,0.484003,0.330179,0.494152,0.581699,0.447498,0.286405,0.554081,0.340223,1
0.526363,0.546886,0.458263,0.669097,0.456209,0.424878,0.61137,0.250372,0.239211,1
0.550579,0.513493,0.248501,0.367586,0.550391,0.597296,0.532191,0.458761,0.651659,1
0.464579,0.450831,0.337105,0.575577,0.434921,0.311226,0.432003,0.672423,0.746195,1
0.584709,0.702041,0.382892,0.489976,0.538842,0.399879,0.418004,0.455745,0.400254,1
0.439228,0.374083,0.332896,0.513105,0.581699,0.437464,0.407256,0.516436,0.534244,1
0.505746,0.541281,0.601677,0.675913,0.469606,0.609537,0.44529,0.689906,0.229712,1
0.473459,0.608699,0.291241,0.515052,0.581699,0.337446,0.360961,0.626331,0.369688,1
0.33605,0.409079,0.078933,0.620827,0.649748,0.285403,0.460518,0.272188,0.502916,1
0.569779,0.679553,0.246935,0.42145,0.70499,0.755693,0.459436,0.390858,0.624619,1
0.486403,0.479838,0.569403,0.652054,0.581699,0.3138,0.438059,0.583959,0.327813,1
0.505771,0.47246,0.328452,0.430338,0.638089,0.171688,0.45074,0.355381,0.488234,1
0.497693,0.470176,0.370504,0.475846,0.529167,0.570606,0.501457,0.284188,0.637103,1
0.460325,0.432378,0.40283,0.715488,0.449996,0.5211,0.325558,0.526661,0.397411,1
0.44841,0.370454,0.253348,0.618845,0.535469,0.741292,0.498788,0.664969,0.71942,1
0.505771,0.433422,0.342645,0.488296,0.445698,0.400806,0.501556,0.607302,0.199558,1
0.643883,0.645414,0.799409,0.442321,0.476183,0.462151,0.538472,0.674605,0.586012,1
0.555833,0.614276,0.570297,0.581777,0.504625,0.464596,0.322205,0.293149,0.637733,1
0.434597,0.391159,0.443126,0.584355,0.581699,0.446798,0.400671,0.532673,0.538497,1
0.511053,0.54668,0.531309,0.674807,0.43777,0.612247,0.67457,0.658669,0.60124,1
0.482058,0.431492,0.363742,0.668761,0.535807,0.605002,0.406869,0.444567,0.352148,1
0.580591,0.666452,0.322358,0.374704,0.625137,0.357759,0.491114,0.507885,0.610464,1
0.505771,0.572389,0.366011,0.480142,0.390987,0.229997,0.361058,0.224423,0.478067,1
0.452549,0.423075,0.431375,0.550235,0.594918,0.744272,0.487707,0.911156,0.591579,1
0.42432,0.465032,0.276755,0.787384,0.508472,0.387165,0.496245,0.597235,0.481749,1
0.54392,0.720365,0.54226,0.616089,0.615881,0.462147,0.328111,0.792058,0.291318,1
0.479875,0.544758,0.340239,0.491481,0.590968,0.804468,0.511667,0.510671,0.574571,1
0.490454,0.501282,0.224253,0.523791,0.700036,0.49147,0.574521,0.598885,0.547581,1
0.505771,0.344027,0.342948,0.716296,0.581699,0.434034,0.539951,0.472367,0.217719,1
0.53956,0.597886,0.229836,0.425911,0.664296,0.470487,0.612126,0.532673,0.552952,1
0.526191,0.677454,0.249995,0.587037,0.667856,0.370319,0.496612,0.519173,0.36764,1
0.469126,0.508663,0.325675,0.543758,0.581699,0.365375,0.389038,0.68534,0.448937,1
0.452403,0.500574,0.298579,0.486942,0.647589,0.324082,0.54558,0.616787,0.47873,1
0.420887,0.333453,0.175435,0.388258,0.59747,0.46342,0.320577,0.721673,0.352016,1
0.565574,0.543816,0.370703,0.620897,0.472547,0.308841,0.412176,0.575655,0.366063,1
0.467795,0.532641,0.116439,0.429353,0.641482,0.313982,0.362919,0.459014,0.561743,1
0.486057,0.640438,0.277067,0.529207,0.69684,0.285446,0.507946,0.482009,0.642336,1
0.505771,0.564479,0.324846,0.652081,0.631581,0.28774,0.358479,0.504726,0.615291,1
0.512584,0.576233,0.418249,0.582601,0.546214,0.531199,0.512447,0.392773,0.622607,1
0.506078,0.577618,0.353037,0.433499,0.581699,0.360464,0.5931,0.440406,0.469435,1
0.514407,0.363736,0.607295,0.416865,0.426566,0.37508,0.426288,0.510205,0.460059,1
0.555432,0.609745,0.633341,0.580248,0.605807,0.293687,0.150369,0.528103,0.751739,1
0.505771,0.588773,0.326621,0.445642,0.553328,0.625995,0.692682,0.584099,0.531006,1
0.503325,0.293989,0.496646,0.320714,0.433839,0.291647,0.495862,0.465831,0.268335,1
0.505771,0.552841,0.202187,0.589776,0.578402,0.196465,0.422128,0.436563,0.572996,1
0.552349,0.51535,0.766782,0.616417,0.449072,0.675409,0.489657,0.571695,0.389625,1
0.447629,0.509255,0.447512,0.688031,0.550855,0.167116,0.424914,0.476354,0.416496,1
0.473589,0.411649,0.365099,0.387741,0.59549,0.411665,0.520808,0.426231,0.705465,1
0.483974,0.387899,0.249637,0.448699,0.607993,0.728319,0.571592,0.449336,0.296378,1
0.505771,0.570583,0.416374,0.597119,0.538809,0.227594,0.696431,0.553963,0.543351,1
0.583214,0.837559,0.471615,0.598115,0.583904,0.355506,0.582629,0.514942,0.512856,1
0.555268,0.740068,0.350829,0.457371,0.755867,0.304879,0.464542,0.542311,0.48988,1
0.521082,0.489585,0.219768,0.433337,0.487481,0.425221,0.607796,0.593037,0.681812,1
0.505771,0.29907,0.140971,0.50692,0.564018,0.601094,0.592238,0.255126,0.452281,1
0.546967,0.665192,0.570307,0.571805,0.667925,0.217091,0.623808,0.579798,0.631977,1
0.547485,0.638925,0.327368,0.550561,0.631085,0.574553,0.45997,0.587809,0.762278,1
0.505771,0.589187,0.325024,0.515778,0.685689,0.275371,0.35029,0.409061,0.4102,1
0.557173,0.592104,0.321024,0.542675,0.581699,0.467094,0.184856,0.446735,0.358463,1
0.518862,0.613694,0.313452,0.515104,0.581699,0.210664,0.651762,0.543351,0.474623,1
0.538879,0.593485,0.558866,0.611726,0.672704,0.465214,0.62657,0.482101,0.428076,1
0.553555,0.660367,0.35586,0.579015,0.543818,0.379571,0.613139,0.327159,0.542104,1
0.531573,0.534407,0.562254,0.637287,0.471085,0.29483,0.642223,0.642699,0.273143,1
0.468518,0.425126,0.498131,0.665383,0.407704,0.615712,0.335567,0.672749,0.523032,1
0.502503,0.627765,0.318942,0.52504,0.690033,0.620258,0.502047,0.544886,0.587451,1
0.562906,0.647722,0.314679,0.45844,0.645791,0.508666,0.375297,0.440453,0.40272,1
0.535598,0.686572,0.351613,0.488185,0.790591,0.205838,0.710255,0.548233,0.527934,1
0.505771,0.556918,0.203256,0.576265,0.755873,0.494075,0.493844,0.510186,0.436018,1
0.467015,0.607783,0.197179,0.543882,0.740893,0.496397,0.762046,0.193042,0.373656,1
0.455235,0.484334,0.282105,0.479032,0.678158,0.402368,0.360101,0.532673,0.583874,1
0.411177,0.451735,0.127506,0.544237,0.571353,0.456887,0.35114,0.772018,0.482526,1
0.494147,0.513185,0.225453,0.457158,0.581699,0.274258,0.600004,0.535437,0.400132,1
0.629536,0.685406,0.662714,0.489767,0.49578,0.169397,0.474178,0.585214,0.527975,1
0.525829,0.668722,0.473659,0.593182,0.699079,0.363357,0.44648,0.314734,0.435165,1
0.655399,0.849362,0.780412,0.624523,0.527749,0.421143,0.297668,0.513804,0.285439,1
0.505771,0.527075,0.52586,0.657427,0.406456,0.700343,0.436132,0.51677,0.47317,1
0.46792,0.356827,0.406347,0.419912,0.443765,0.328979,0.247309,0.532673,0.638084,1
0.465061,0.639948,0.243427,0.572644,0.739683,0.446907,0.378737,0.418629,0.524789,1
0.524788,0.551999,0.307888,0.423862,0.590842,0.405223,0.393965,0.454772,0.538454,1
0.579425,0.61603,0.621669,0.540284,0.519586,0.174143,0.414863,0.631534,0.563575,1
0.505771,0.687912,0.576514,0.56874,0.716806,0.320969,0.431183,0.265304,0.449222,1
0.427501,0.376975,0.325656,0.577009,0.414963,0.519094,0.605987,0.797677,0.437531,1
0.505771,0.599485,0.415483,0.644868,0.595583,0.260151,0.339189,0.517061,0.523582,1
0.505771,0.412079,0.414778,0.504494,0.581699,0.500117,0.456151,0.418567,0.579349,1
0.459552,0.47089,0.328378,0.471774,0.693269,0.338448,0.363396,0.494003,0.414349,1
0.483578,0.559388,0.419771,0.705717,0.564211,0.590874,0.594648,0.724691,0.709673,1
0.566284,0.643069,0.444635,0.51063,0.608715,0.235075,0.457361,0.25718,0.642326,1
0.524202,0.66214,0.201662,0.440195,0.631533,0.33116,0.658595,0.642807,0.485359,1
0.505597,0.547642,0.268079,0.514998,0.623662,0.508504,0.576614,0.477786,0.342875,1
0.482262,0.469223,0.520793,0.59334,0.581699,0.499537,0.345399,0.379634,0.432062,1
0.553152,0.565719,0.346139,0.569177,0.580094,0.424659,0.565127,0.386808,0.408822,1
0.540028,0.637669,0.236727,0.499382,0.690363,0.524357,0.256721,0.498096,0.530876,1
0.559329,0.601458,0.303753,0.479304,0.53283,0.391347,0.562161,0.447565,0.397347,1
0.481924,0.387752,0.407454,0.637488,0.414407,0.259854,0.528109,0.561448,0.384862,1
0.467306,0.35773,0.58524,0.643967,0.581699,0.511532,0.734344,0.433137,0.443194,1
0.610692,0.687106,0.287448,0.344444,0.602324,0.422528,0.502423,0.650592,0.300438,1
0.535703,0.667799,0.363373,0.584658,0.581699,0.348889,0.465067,0.532673,0.607652,1
0.411698,0.492004,0.356363,0.67326,0.581699,0.341164,0.319824,0.507551,0.340934,1
0.519776,0.429341,0.493807,0.585803,0.434328,0.514397,0.387976,0.670619,0.876115,1
0.535235,0.612821,0.150139,0.359728,0.603529,0.559337,0.346648,0.423597,0.434628,1
0.436859,0.4037,0.363839,0.63523,0.581699,0.485276,0.509398,0.532673,0.479166,1
0.37335,0.289038,0.124558,0.501756,0.586488,0.513848,0.403257,0.638331,0.697307,1
0.505771,0.756357,0.242604,0.636432,0.661793,0.507107,0.473982,0.320856,0.336158,1
0.458617,0.481918,0.422183,0.732573,0.511199,0.509883,0.594804,0.461283,0.31952,1
0.547787,0.573697,0.18485,0.306167,0.645218,0.395618,0.330615,0.669353,0.593593,1
0.509147,0.522209,0.408933,0.489694,0.540438,0.415874,0.408635,0.630612,0.578672,1
0.505771,0.223019,0.232413,0.395003,0.432344,0.578374,0.49095,0.697161,0.462388,1
0.472525,0.478101,0.428066,0.701148,0.581699,0.550625,0.405617,0.62894,0.567866,1
0.464634,0.405344,0.214791,0.517126,0.474609,0.312124,0.514822,0.509292,0.434571,1
0.532795,0.535368,0.539395,0.563552,0.581699,0.616731,0.579849,0.305285,0.396058,1
0.505771,0.632014,0.524553,0.65857,0.497007,0.307549,0.406887,0.410802,0.634303,1
0.506861,0.631416,0.277789,0.691152,0.55,0.456511,0.550812,0.627802,0.630674,1
0.499246,0.545006,0.194229,0.59743,0.602505,0.213537,0.464785,0.56886,0.454348,0
0.505771,0.498054,0.525525,0.629713,0.465693,0.761833,0.235575,0.411474,0.764451,0
0.592695,0.634782,0.32836,0.545586,0.477625,0.336859,0.520277,0.752124,0.513539,0
0.274747,0.596046,0.23586,0.56406,0.562201,0.331875,0.749623,0.284301,0.32018,0
0.505771,0.462421,0.470721,0.337253,0.819077,0.5025,0.299549,0.426807,0.419561,0
0.670001,0.431053,0.527869,0.547204,0.581699,0.554034,0.40536,0.454766,0.589195,0
0.642741,0.441784,0.352494,0.59267,0.581699,0.44668,0.613877,0.588015,0.57987,0
0.406456,0.702899,0.225968,0.42168,0.46719,0.553981,0.864191,0.567822,0.29091,0
0.52154,0.472378,0.379605,0.685324,0.560436,0.51933,0.452237,0.441704,0.250513,0
0.502263,0.557035,0.397161,0.427888,0.773424,0.332482,0.407924,0.717613,0.561956,0
0.31062,0.543521,0.156422,0.818704,0.581699,0.199815,0.680392,0.657205,0.550378,0
0.378157,0.677711,0.434935,0.255136,0.683487,0.681097,0.405202,0.356458,0.391842,0
0.518424,0.509023,0.394596,0.535754,0.581699,0.288197,0.333063,0.493446,0.5326,0
0.660749,0.496968,0.368242,0.551833,0.698826,0.445932,0.505861,0.357377,0.481441,0
0.691462,0.551701,0.535173,0.452118,0.581699,0.48931,0.532938,0.614998,0.25446,0
0.505771,0.498969,0.31924,0.559929,0.581699,0.195842,0.41127,0.532673,0.296462,0
0.481518,0.541913,0.381649,0.566934,0.529995,0.557234,0.36257,0.251825,0.38778,0
0.48655,0.776075,0.243465,0.524783,0.581699,0.378246,0.37523,0.531548,0.345057,0
0.497639,0.636429,0.412439,0.550433,0.581699,0.814652,0.582041,0.308243,0.549618,0
0.531864,0.477761,0.286381,0.745559,0.566596,0.319398,0.413122,0.391956,0.283354,0
0.443618,0.525168,0.312104,0.660735,0.581699,0.384535,0.614004,0.491118,0.333168,0
0.524396,0.508685,0.344013,0.581761,0.581699,0.263353,0.561009,0.440372,0.486981,0
0.503671,0.507765,0.247962,0.66689,0.603819,0.665036,0.462858,0.532673,0.325599,0
0.474472,0.649623,0.220163,0.681704,0.36491,0.163656,0.405334,0.532673,0.445778,0
0.724735,0.706294,0.399446,0.348444,0.619462,0.292031,0.590605,0.58626,0.573181,0
1,0.682811,0.388926,0.413544,0.716124,0.48834,0.431132,0.585107,0.325391,0
0.604967,0.294488,0.245494,0.812018,0.581699,0.65027,0.564401,0.559773,0.510409,0
0.431658,0.376204,0.392179,0.631082,0.581699,0.401193,0.302109,0.866836,0.519328,0
0.417223,0.533874,0.285702,0.414426,0.799245,0.772008,0.59117,0.749077,0.527049,0
0.579619,0.68577,0.43198,0.462997,0.414995,0.55172,0.627913,0.467097,0.227755,0
0.398937,0.348481,0.359795,0.69674,0.680019,0.447035,0.359204,0.419321,0.51018,0
0.421714,0.539888,0.31324,0.570638,0.566057,0.249296,0.624727,0.619979,0.448104,0
0.73458,0.732311,0.376613,0.233211,0.441456,0.502541,0.114501,0.542622,0.263686,0
0.684159,0.574252,0.53787,0.415487,0.646814,0.265076,0.566474,0.553034,0.372327,0
0.506774,0.335428,0.306285,0.565163,0.835285,0.606413,0.626673,0.550945,0.411885,0
0.505771,0.592374,0.195519,0.516554,0.733995,0.420634,0.478193,0.621313,0.201696,0
0.691947,0.517719,0.302623,0.526106,0.581699,0.488908,0.264631,0.515084,0.30929,0
0.466246,0.484747,0.363233,0.792405,0.405825,0.296542,0.37534,0.532673,0.400299,0
0.505771,0.530293,0.302633,0.652291,0.563419,0.518693,0.420418,0.421346,0.174596,0
0.553198,0.585756,0.448677,0.412569,0.578994,0.37697,0.394107,0.587744,0.67429,0
0.592087,0.52387,0.364582,0.597038,0.581699,0.194763,0.605505,0.582804,0.537153,0
0.517804,0.639379,0.3939,0.551117,0.416505,0.219107,0.287251,0.620318,0.55048,0
0.55315,0.624707,0.500585,0.504006,0.581699,0.390915,0.404551,0.564925,0.690903,0
0.505771,0.604965,0.307123,0.570076,0.581699,0.419083,0.560373,0.599466,0.479653,0
0.492162,0.501691,0.195335,0.600465,0.629655,0.372394,0.569536,0.696839,0.501172,0
0.431956,0.664344,0.327675,0.70519,0.502162,0.265882,0.398232,0.442666,0.144967,0
0.826341,0.527735,0.638909,0.666048,0.303938,0.493044,0.667746,0.655178,0.436999,0
0.72606,0.532735,0.469487,0.544007,0.532696,0.170814,0.622694,0.505626,0.281279,0
0.623022,0.354797,0.327313,0.806262,0.581699,0.75341,0.415837,0.763323,0.294817,0
0.26555,0.493005,0.238404,0.718823,0.581699,0.196611,0.411582,0.903141,0.440586,0
0.349591,0.497369,0.174064,0.556532,0.635826,0.274888,0.744242,0.732342,0.405557,0
0.433656,0.329324,0.238589,0.605991,0.581699,0.36341,0.567951,0.80887,0.678074,0
0.645183,0.394765,0.403515,0.570461,0.816777,0.281997,0.436765,0.50108,0.411446,0
0.708122,0.408667,0.522263,0.450686,0.784862,0.629066,0.358097,0.367866,0.776076,0
0.505771,0.429132,0.321779,0.542164,0.633368,0.4173,0.596784,0.367221,0.374002,0
0.302087,0.581218,0.343042,0.508223,0.497897,0.536797,0.432545,0.52384,0.431677,0
0.652532,0.673735,0.521857,0.500798,0.581699,0.331281,0.541562,0.551338,0.414764,0
0.279041,0.382263,0.287931,0.548811,0.555017,0.281407,0.208322,0.604106,0.331782,0
0.527432,0.365858,0.231455,0.683598,0.621997,0.23624,0.43272,0.471544,0.735108,0
0.505771,0.483324,0.137451,0.651256,0.759959,0.617032,0.310337,0.705116,0.465797,0
0.608878,0.342332,0.202561,0.854199,0.620026,0.359533,0.405746,0.558478,0.546996,0
0.407581,0.5502,0.418589,0.472137,0.581699,0.528697,0.361594,0.638769,0.543845,0
0.265369,0.550075,0.255801,0.642599,0.460483,0.332885,0.374467,0.532673,0.170796,0
0.465703,0.492557,0.229266,0.629125,0.693382,0.548971,0.361627,0.469923,0.344543,0
0.565046,0.518679,0.265007,0.399411,0.753644,0.197068,0.592286,0.662646,0.460693,0
0.470533,0.593914,0.470713,0.667841,0.392586,0.565568,0.454203,0.553605,0.500443,0
0.307145,0.619851,0.284354,0.561669,0.576185,0.42445,0.490641,0.562321,0.593014,0
0.612567,0.608305,0.253796,0.562096,0.533929,0.311871,0.488302,0.638688,0.482535,0
0.634638,0.354909,0.28405,0.619646,0.603577,0.184323,0.497882,0.337095,0.617161,0
0.75034,0.349432,0.508967,0.577417,0.778209,0.541624,0.375626,0.607679,0.61096,0
0.505771,0.622588,0.504444,0.50257,0.383207,0.402175,0.536741,0.568826,0.101081,0
0.496194,0.604798,0.53567,0.401742,0.580744,0.240269,0.406512,0.121261,0.658912,0
0.579078,0.60066,0.397511,0.460683,0.548523,0.587569,0.465595,0.479647,0.249417,0
0.350636,0.41282,0.21666,0.614811,0.608769,0.618581,0.465751,0.573631,0.519272,0
0.364212,0.543036,0.350733,0.579562,0.463742,0.425249,0.33439,0.409558,0.54522,0
0.435221,0.585712,0.34702,0.723967,0.381937,0.485315,0.655048,0.245568,0.581123,0
0.71671,0.602903,0.412311,0.379721,0.539754,0.316124,0.451895,0.545852,0.274444,0
0.641357,0.600887,0.30719,0.386655,0.533875,0.510033,0.524562,0.530164,0.606224,0
0.393911,0.657632,0.575026,0.312689,0.581699,0.602646,0.487777,0.373534,0.254899,0
0.505771,0.556447,0.335309,0.513032,0.385317,0.470182,0.306864,0.565929,0.446004,0
0.480806,0.659058,0.241965,0.373175,0.530863,0.458985,0.443777,0.612807,0.518148,0
0.513712,0.65645,0.247504,0.551593,0.584545,0.198356,0.449513,0.405724,0.501554,0
0.505771,0.518516,0.495896,0.471503,0.73479,0.350739,0.651162,0.591584,0.659556,0
0.509122,0.457968,0.311768,0.483866,0.691807,0.199179,0.194383,0.714356,0.367968,0
0.402289,0.566932,0.312365,0.602411,0.387316,0.921106,0.519243,0.555385,0.389863,0
0.505771,0.495437,0.214104,0.697194,0.585432,0.500054,0.665974,0.64372,0.559852,0
0.568216,0.714435,0.526785,0.232176,0.507466,0.441417,0.538486,0.543093,0.473798,0
0.555361,0.535912,0.361355,0.450343,0.817966,0.332481,0.335792,0.532673,0.614385,0
0.369167,0.576142,0.28886,0.85229,0.581699,0.308141,0.103559,0.578822,0.452101,0
0.54768,0.420447,0.405777,0.61891,0.569828,0.437842,0.531743,0.716812,0.59901,0
0.519454,0.658906,0.264075,0.566556,0.407001,0.589526,0.600726,0.538417,0.481486,0
0.263709,0.562512,0.149719,0.782123,0.523076,0.633377,0.507134,0.523009,0.45313,0
0.505771,0.630033,0.44064,0.588958,0.413767,0.508189,0.519518,0.283724,0.612395,0
0.549466,0.628916,0.432893,0.621073,0.485636,0.669821,0.446811,0.618828,0.58091,0
0.58268,0.68523,0.453324,0.458057,0.55769,0.577247,0.428413,0.64861,0.570889,0
0.513412,0.495932,0.505774,0.471686,0.63607,0.5085,0.483061,0.496713,0.441316,0
0.406397,0.561978,0.281953,0.404568,0.72777,0.520678,0.746857,0.532673,0.431494,0
0.62563,0.543299,0.316079,0.559016,0.704025,0.589135,0.650802,0.284338,0.392809,0
0.701018,0.472557,0.496747,0.472949,0.581699,0.621197,0.388468,0.369303,0.542169,0
0.712091,0.687691,0.437127,0.409924,0.583262,0.345635,0.414107,0.693215,0.414706,0
0.505771,0.47779,0.294898,0.588875,0.560141,0.377256,0.277332,0.463347,0.247279,0
0.653509,0.418044,0.347126,0.741188,0.581699,0.559724,0.515979,0.672986,0.634457,0
0.505771,0.358437,0.415432,0.544481,0.581699,0.494354,0.235819,0.553809,0.403268,0
0.417201,0.40063,0.258862,0.712798,0.421953,0.644658,0.370513,0.417883,0.680557,0
0.505771,0.589503,0.30124,0.321037,0.620916,0.521243,0.532298,0.552167,0.439039,0
0.355834,0.629393,0.339327,0.597547,0.294147,0.335994,0.384489,0.366796,0.57197,0
0.38738,0.502268,0.290609,0.473507,0.904518,0.263293,0.211331,0.540278,0.71368,0
0.345612,0.70261,0.295659,0.551956,0.308261,0.303907,0.402964,0.605704,0.591865,0
0.564575,0.617862,0.381817,0.558984,0.426516,0.641193,0.311477,0.522809,0.319017,0
0.481719,0.402996,0.262429,0.530874,0.581699,0.582775,0.273329,0.306699,0.394049,0
0.618855,0.578512,0.479924,0.444483,0.596631,0.259202,0.265897,0.511332,0.423377,0
0.297222,0.487154,0.418585,0.640519,0.477911,0.380878,0.273691,0.372378,0.513943,0
0.608284,0.598032,0.463542,0.538033,0.606777,0.280238,0.260676,0.486664,0.135315,0
0.714272,0.608204,0.544133,0.457309,0.67294,0.336539,0.444139,0.625774,0.228772,0
0.502721,0.571258,0.398746,0.604944,0.431058,0.32239,0.329791,0.48007,0.527075,0
0.200255,0.503068,0.190456,0.648926,0.578769,0.465343,0.623838,0.705485,0.385695,0
0.426614,0.504314,0.374405,0.521374,0.581699,0.462939,0.546184,0.51882,0.702391,0
0.58434,0.47389,0.415441,0.565329,0.746862,0.300814,0.672391,0.596756,0.452907,0
0.500732,0.416012,0.428106,0.490849,0.581699,0.687403,0.38613,0.412866,0.345813,0
0.584278,0.767051,0.278636,0.378271,0.581699,0.442453,0.406629,0.408542,0.538048,0
0.505771,0.417425,0.399333,0.541336,0.573545,0.407735,0.359515,0.593923,0.333851,0
0.490366,0.614136,0.216859,0.41225,0.776391,0.650743,0.516964,0.694781,0.473654,0
0.567915,0.361584,0.336697,0.694648,0.581699,0.513012,0.326216,0.482854,0.584928,0
0.505771,0.568846,0.426898,0.437221,0.581699,0.53473,0.697617,0.564672,0.350839,0
0.684371,0.637901,0.459261,0.415924,0.581699,0.379456,0.350604,0.355634,0.468742,0
0.519625,0.535692,0.347679,0.486817,0.658175,0.414245,0.351822,0.653061,0.533481,0
0.505771,0.774099,0.188532,0.38424,0.588132,0.424186,0.387699,0.563558,0.258286,0
0.573341,0.442167,0.309452,0.605049,0.785521,0.295691,0.497224,0.545715,0.432215,0
0.562825,0.445276,0.602237,0.459117,0.616604,0.58772,0.523823,0.553075,0.494655,0
0.460641,0.68928,0.302354,0.410792,0.581699,0.093657,0.358064,0.454134,0.436628,0
0.370672,0.449077,0.196514,0.816791,0.48925,0.559711,0.386373,0.435949,0.647811,0
0.467006,0.544072,0.257086,0.553655,0.411099,0.473375,0.627776,0.624627,0.698383,0
0.422558,0.537963,0.198844,0.493903,0.715067,0.325903,0.731826,0.727368,0.579164,0
0.581178,0.496205,0.487814,0.458967,0.694976,0.383186,0.501486,0.300572,0.520738,0
0.505771,0.509414,0.479617,0.597185,0.413298,0.503006,0.535219,0.63432,0.59307,0
0.46384,0.572082,0.320171,0.469117,0.481151,0.526549,0.381791,0.719928,0.65436,0
0.505771,0.572764,0.407541,0.413894,0.47465,0.606437,0.410403,0.558069,0.65132,0
0.498386,0.57358,0.259087,0.405111,0.688468,0.61354,0.312129,0.582791,0.733141,0
0.392089,0.316035,0.25709,0.716427,0.673846,0.414715,0.409871,0.462777,0.479677,0
0.182722,0.362936,0.344719,0.688081,0.519995,0.393258,0.357075,0.669627,0.25851,0
0.522294,0.552722,0.23347,0.663437,0.417913,0.534223,0.577458,0.563009,0.694625,0
0.611007,0.523325,0.521976,0.607699,0.467731,0.590112,0.243969,0.465062,0.399624,0
0.478888,0.367838,0.213576,0.529665,0.581699,0.388098,0.712428,0.564717,0.367807,0
0.505771,0.534245,0.295916,0.568285,0.581699,0.242844,0.388247,0.603405,0.579566,0
0.57345,0.570752,0.329811,0.327169,0.787798,0.58422,0.741719,0.566348,0.466249,0
0.505771,0.437483,0.299533,0.642674,0.614166,0.415571,0.622984,0.478349,0.285958,0
0.615487,0.65773,0.308759,0.521767,0.564993,0.35331,0.481198,0.328876,0.592658,0
0.676224,0.441734,0.542545,0.634715,0.531091,0.469067,0.314053,0.597012,0.324104,0
0.485264,0.652154,0.23231,0.635578,0.413159,0.31349,0.659086,0.320882,0.637731,0
0.505771,0.661221,0.36324,0.4188,0.545379,0.362934,0.509638,0.271845,0.45399,0
0.505771,0.511306,0.353893,0.531458,0.794976,0.760043,0.259555,0.478412,0.505434,0
0.391861,0.505142,0.267924,0.740178,0.581699,0.305073,0.385221,0.532673,0.587579,0
0.360768,0.523375,0.294405,0.607915,0.440914,0.336197,0.607105,0.739189,0.468953,0
0.446151,0.550132,0.438057,0.583641,0.477014,0.519817,0.571955,0.68197,0.624912,0
0.581595,0.632301,0.484142,0.662869,0.218547,0.65606,0.327119,0.47683,0.615403,0
0.489493,0.401346,0.19035,0.570095,0.730526,0.510895,0.564727,0.502649,0.594585,0
0.62871,0.647329,0.383183,0.164901,0.793732,0.464291,0.465165,0.341248,0.438614,0
0.505771,0.55452,0.411042,0.52863,0.498957,0.372054,0.531317,0.625278,0.34598,0
0.59884,0.397254,0.354692,0.571807,0.711704,0.320553,0.366819,0.503949,0.403807,0
0.462581,0.610427,0.342242,0.57072,0.623454,0.233614,0.434605,0.368573,0.489994,0
0.706754,0.294364,0.428775,0.659626,0.627072,0.523178,0.264591,0.524,0.598891,0
0.343431,0.503201,0.308624,0.524653,0.654506,0.692492,0.233881,0.587489,0.406081,0
0.755566,0.836456,0.465161,0.190506,0.710954,0.267073,0.490877,0.522966,0.302819,0
0.450355,0.731434,0.340285,0.399552,0.581699,0.267015,0.493835,0.422301,0.523975,0
0.558749,0.584728,0.361012,0.430397,0.792895,0.561862,0.533936,0.483977,0.450999,0
0.57067,0.524151,0.269691,0.642695,0.521943,0.437209,0.466328,0.626235,0.41572,0
0.690843,0.3017,0.490913,0.701146,0.685437,0.402892,0.606284,0.611881,0.4623,0
0.424376,0.480692,0.430851,0.504993,0.581699,0.43802,0.476337,0.605994,0.146979,0
0.398197,0.516042,0.18375,0.655105,0.570802,0.262034,0.606015,0.530988,0.552431,0
0.543608,0.585384,0.561808,0.410851,0.49083,0.505818,0.51605,0.280922,0.613012,0
0.507318,0.710869,0.380456,0.347612,0.43844,0.279711,0.531524,0.364227,0.305447,0
0.368053,0.500233,0.416193,0.584538,0.538166,0.469408,0.616919,0.394315,0.452378,0
0.521533,0.574155,0.385146,0.612757,0.580459,0.608788,0.388977,0.326898,0.471301,0
0.436066,0.702754,0.217036,0.443331,0.586303,0.318522,0.431283,0.488275,0.507077,0
0.42867,0.505827,0.365051,0.629345,0.574424,0.460616,0.08685,0.529091,0.489075,0
0.505771,0.383047,0.462745,0.631976,0.581699,0.288231,0.495734,0.38655,0.450158,0
0.563263,0.58177,0.197659,0.549954,0.602161,0.555868,0.453839,0.786042,0.752571,0
0.505771,0.407705,0.387419,0.503294,0.682395,0.509642,0.447963,0.689756,0.266154,0
0.548506,0.571029,0.34823,0.613182,0.581699,0.461455,0.540619,0.626973,0.328384,0
0.505771,0.422665,0.315172,0.534386,0.752323,0.710591,0.484394,0.553852,0.514261,0
0.742282,0.780979,0.636975,0.223388,0.445212,0.510319,0.425314,0.523931,0.817114,0
0.479633,0.685947,0.539784,0.360588,0.57519,0.387268,0.484336,0.532673,0.594397,0
0.524975,0.681118,0.33038,0.534308,0.581699,0.216721,0.407322,0.733029,0.455981,0
0.505771,0.539192,0.368191,0.5754,0.558129,0.376966,0.723816,0.415384,0.42789,0
0.524653,0.561287,0.274386,0.458758,0.660285,0.732368,0.578534,0.716684,0.538475,0
0.724792,0.472953,0.333655,0.423307,0.581699,0.535788,0.547407,0.388206,0.255141,0
0.455766,0.792854,0.343643,0.352433,0.648356,0.308995,0.950449,0.480276,0.582723,0
0.567189,0.48728,0.255111,0.508647,0.581699,0.70532,0.321461,0.658915,0.752852,0
0.505771,0.545107,0.507841,0.461873,0.581699,0.246099,0.462518,0.599587,0.464459,0
0.556195,0.525034,0.45588,0.532755,0.570145,0.255127,0.324956,0.419249,0.096706,0
0.451646,0.653345,0.396383,0.462617,0.581699,0.382024,0.602017,0.571248,0.623828,0
0.505771,0.44564,0.233629,0.586724,0.757025,0.533145,0.444352,0.41114,0.44319,0
0.47469,0.445561,0.379455,0.525602,0.581699,0.580355,0.692133,0.63412,0.514399,0
0.42961,0.573288,0.376764,0.679747,0.438429,0.332109,0.561826,0.586392,0.233706,0
0.720484,0.516157,0.283248,0.512151,0.581699,0.411216,0.278841,0.747628,0.545306,0
0.369016,0.320213,0.19274,0.64854,0.581699,0.316046,0.344274,0.61113,0.597149,0
0.398086,0.659225,0.251078,0.297918,0.722895,0.39797,0.327659,0.511273,0.406433,0
0.678183,0.75121,0.462534,0.451006,0.581699,0.768541,0.621378,0.52498,0.412386,0
0.645465,0.550941,0.35095,0.43978,0.628308,0.187153,0.429134,0.586718,0.796367,0
0.314322,0.260806,0.308329,0.892517,0.581699,0.25691,0.487054,0.394432,0.484176,0
0.498242,0.574947,0.367199,0.436459,0.497255,0.45515,0.433642,0.626644,0.658245,0
0.477696,0.409257,0.286766,0.572084,0.581699,0.116173,0.583889,0.698664,0.777082,0
0.490537,0.490548,0.327163,0.509986,0.573262,0.417672,0.603556,0.481339,0.640436,0
0.439661,0.406568,0.319518,0.761613,0.514559,0.565917,0.558184,0.334713,0.445057,0
0.59309,0.670976,0.266433,0.469004,0.488842,0.373965,0.444061,0.631847,0.461839,0
0.61726,0.576404,0.644208,0.442102,0.458983,0.286794,0.479257,0.532673,0.371833,0
0.505771,0.624763,0.359399,0.432332,0.581699,0.379524,0.356411,0.905991,0.291976,0
0.524901,0.606778,0.532314,0.469591,0.542751,0.448643,0.520788,0.44319,0.396018,0
0.540993,0.575904,0.256221,0.404905,0.581699,0.482906,0.358261,0.532673,0.55979,0
0.561136,0.588772,0.320644,0.601712,0.486585,0.326923,0.625487,0.45838,0.510851,0
0.505771,0.485896,0.305185,0.537248,0.559329,0.305465,0.482101,0.752078,0.484681,0
0.271314,0.515744,0.298965,0.511644,0.758761,0.321389,0.500626,0.697236,0.639725,0
0.505771,0.678583,0.307324,0.504416,0.550794,0.447654,0.609516,0.530538,0.390262,0
0.80253,0.475765,0.54924,0.681882,0.5643,0.427351,0.604837,0.47256,0.699008,0
0.456882,0.286765,0.325004,0.580175,0.84759,0.443806,0.370945,0.429339,0.566441,0
0.505771,0.636756,0.524023,0.436216,0.589871,0.603807,0.292814,0.620662,0.483387,0
0.373465,0.523163,0.402832,0.52165,0.591627,0.283051,0.525772,0.621256,0.328759,0
0.46516,0.548194,0.34981,0.434059,0.739529,0.200709,0.26735,0.532673,0.75171,0
0.559594,0.449258,0.420279,0.644806,0.506287,0.467039,0.54436,0.482258,0.393824,0
0.527735,0.474849,0.207002,0.585385,0.581699,0.341002,0.609712,0.321786,0.453173,0
0.430047,0.54422,0.167608,0.387738,0.816677,0.40312,0.295376,0.474023,0.712258,0
0.599166,0.757374,0.270496,0.296792,0.581699,0.266609,0.330319,0.44176,0.454674,0
0.598878,0.638017,0.445647,0.479433,0.636174,0.238798,0.323569,0.51493,0.380223,0
0.528141,0.588291,0.289277,0.538688,0.581699,0.293299,0.43599,0.54692,0.441053,0
0.505771,0.683218,0.355671,0.446911,0.574589,0.45419,0.403968,0.536758,0.575621,0
0.598902,0.43326,0.486574,0.737857,0.506669,0.638267,0.581236,0.300966,0.422155,0
0.506772,0.635018,0.488036,0.494091,0.581699,0.612871,0.534979,0.368021,0.49814,0
0.468951,0.34154,0.206123,0.686105,0.601976,0.277154,0.571156,0.692261,0.148212,0
0.455837,0.552076,0.330555,0.430273,0.581699,0.285238,0.553694,0.548223,0.606484,0
0.538553,0.560507,0.433378,0.413726,0.581699,0.585583,0.489872,0.67173,0.521966,0
0.759201,0.529581,0.225481,0.780938,0.562633,0.520966,0.455011,0.532439,0.697759,0
0.659177,0.555977,0.433835,0.507347,0.59887,0.319077,0.457654,0.699422,0.639016,0
0.751757,0.75715,0.519559,0.364384,0.453273,0.566359,0.396039,0.605258,0.546604,0
0.505771,0.661278,0.367589,0.470426,0.53187,0.197045,0.532476,0.436901,0.632522,0
0.43009,0.687519,0.321366,0.566412,0.44865,0.233944,0.380521,0.595388,0.487435,0
0.505771,0.684724,0.566475,0.361205,0.662074,0.623428,0.646953,0.706325,0.440216,0
0.426711,0.48863,0.434819,0.421604,0.767699,0.525336,0.268581,0.391032,0.521634,0
0.444113,0.514742,0.243565,0.506257,0.505333,0.203337,0.374135,0.654287,0.385707,0
0.505771,0.465744,0.599266,0.571308,0.54831,0.285442,0.563943,0.532673,0.392213,0
0.652186,0.649173,0.32259,0.420492,0.732038,0.453013,0.365966,0.532673,0.725749,0
0.505771,0.855946,0.342151,0.306749,0.353474,0.602436,0.179093,0.437361,0.478114,0
0.435394,0.553566,0.264078,0.472806,0.673286,0.459852,0.529885,0.580582,0.539235,0
0.442518,0.444591,0.268366,0.714789,0.581699,0.48191,0.54198,0.63792,0.319337,0
0.415326,0.497329,0.47715,0.446124,0.623106,0.391946,0.634031,0.660777,0.507074,0
0.482619,0.599255,0.357793,0.624674,0.41542,0.360366,0.458776,0.613161,0.517087,0
0.505771,0.452242,0.431391,0.616849,0.581699,0.292659,0.217538,0.75096,0.397109,0
0.454998,0.294477,0.219496,0.682178,0.581699,0.241845,0.222276,0.286135,0.373807,0
0.471529,0.573789,0.317121,0.533951,0.61084,0.435555,0.382071,0.459333,0.477137,0
0.40371,0.33232,0.266884,0.587543,0.74294,0.414542,0.4241,0.530076,0.457937,0
0.54329,0.727658,0.234607,0.470024,0.549261,0.164085,0.364218,0.762905,0.592074,0
0.212459,0.361696,0.279204,0.168031,0.750414,0.339118,0.406061,0.613937,0.251447,1
0.505771,0.486523,0.311436,0.545836,0.581699,0.163,0.455686,0.454831,0.221104,1
0.505771,0.669828,0.263638,0,0.310901,0.477515,0.213186,0.447329,0.563779,1
0.579364,0.548932,0.572681,0.730598,0.581699,0.292883,0.646434,0.585205,0.418562,1
0.508295,0.568057,0.407359,0.395355,0.463949,0.42409,0.407537,0.443499,0.466134,1
0.377164,0.423028,0.219323,0.439874,0.581699,0.79461,0.368032,0.281481,0.450994,1
0.505771,0.43408,0.493246,0.754468,0.662617,0.438127,0.297758,0.7646,0.358491,1
0.70059,0.626125,0.555134,0.735871,0.297901,0.324487,0.432899,0.504748,0.573126,1
0.505771,0.452616,0.43235,0.541658,0.587717,0.574523,0.444823,0.686697,0.575229,1
0.572774,0.545368,0.374076,0.729774,0.550902,0.374664,0.426734,0.552581,0.328697,1
0.471689,0.5785,0.234411,0.477506,0.531924,0.700569,0.395438,0.552762,0.369408,1
0.460772,0.547934,0.306723,0.544379,0.586546,0.132067,0.441536,0.422859,0.345166,1
0.447598,0.42059,0.456772,0.638493,0.704116,0.199685,0.296492,0.400949,0.281076,1
0.505771,0.353887,0.261033,0.407911,0.712901,0.3376,0.341689,0.580493,0.653123,1
0.368706,0.479537,0.301211,0.379188,0.772365,0.531299,0.454395,0.609142,0.542655,1
0.498886,0.487048,0.293461,0.619319,0.687856,0.035211,0.34741,0.547246,0.369864,1
0.485142,0.591152,0.495039,0.49021,0.561275,0.545057,0.681439,0.489868,0.276812,1
0.593516,0.547368,0.394443,0.625559,0.425721,0.480969,0.51012,0.51684,0.436074,1
0.361267,0.327385,0.179098,0.474318,1,0.697045,0.505376,0.350023,0.324057,1
0.493448,0.593683,0.310379,0.471857,0.505928,0.249015,0.728294,0.577493,0.747886,1
0.517386,0.510041,0.337512,0.634216,0.581699,0.343031,0.542428,0.575109,0.570417,1
0.44032,0.513714,0.44316,0.50647,0.542429,0.596856,0.433049,0.429639,0.639823,1
0.654357,0.703506,0.457259,0.50627,0.379433,0.67663,0.226857,0.385533,0.395638,1
0.376991,0.432733,0.296901,0.346389,0.581699,0.289819,0.510576,0.50519,0.412669,1
0.283982,0.320865,0.280922,0.46605,0.694503,0.284887,0.514341,0.548693,0.419139,1
0.406087,0.388615,0.28416,0.494125,0.741682,0.249964,0.580559,0.540875,0.494641,1
0.495261,0.617857,0.307113,0.216473,0.534234,0.466463,0.411633,0.617277,0.106018,1
0.533178,0.651336,0.4308,0.415328,0.487715,0.263326,0.53076,0.226712,0.459553,1
0.433703,0.618061,0.27652,0.248072,0.539832,0.753003,0.549511,0.519936,0.234753,1
0.509722,0.504732,0.314936,0.606139,0.501178,0.305064,0.515139,0.593432,0.212553,1
0.505771,0.488523,0.346966,0.494347,0.581699,0.368884,0.508222,0.481154,0.678014,1
0.45204,0.52466,0.541734,0.524309,0.581699,0.539052,0.282068,0.462716,0.343327,1
0.439328,0.442417,0.386987,0.54669,0.701079,0.33586,0.517407,0.385857,0.642375,1
0.505771,0.573952,0.438773,0.288214,0.480679,0.584534,0.262741,0.383668,0.494879,1
0.39344,0.525204,0.194006,0.381877,0.863622,0.391708,0.241848,0.439528,0.590169,1
0.340079,0.372309,0.309922,0.593711,0.697318,0.382905,0.342228,0.555908,0.592058,1
0.749339,0.629678,0.52164,0.960853,0.580404,0.388803,0.324284,0.707884,0.2717,1
0.476867,0.52687,0.445735,0.427197,0.432936,0.20705,0.384583,0.367763,0.545783,1
0.569522,0.689411,0.38086,0.391586,0.43912,0.520076,0.500368,0.429439,0.260184,1
0.525153,0.583595,0.21991,0.615831,0.635882,0.271796,0.714423,0.557343,0.834656,1
0.499343,0.636623,0.318399,0.386728,0.516681,0.154884,0.619242,0.532673,0.545026,1
0.390597,0.482242,0.196777,0.398792,0.799531,0.362435,0.39667,0.485874,0.658625,1
0.559708,0.577579,0.284412,0.609431,0.581699,0.513249,0.535141,0.546351,0.327825,1
0.181294,0.193602,0.321016,0.364933,0.820951,0.418542,0.451375,0.691253,0.262828,1
0.601649,0.383039,0.256195,0.841458,0.568508,0.436618,0.387802,0.421,0.474307,1
0.544072,0.605648,0.484304,0.481945,0.481071,0.548145,0.425679,0.562298,0.444423,1
0.544074,0.709333,0.285034,0.195991,0.481246,0.644396,0.30135,0.614749,0.538768,1
0.38781,0.493331,0.245368,0.419783,0.752779,0.464092,0.589332,0.401818,0.308515,1
0.505771,0.609592,0.298306,0.26668,0.470422,0.330135,0.165917,0.546495,0.592202,1
0.39257,0.373977,0.295745,0.557317,0.817794,0.207875,0.386981,0.445951,0.652494,1
0.363768,0.69755,0.460871,0.081321,0.367707,0.473582,0.445876,0.574176,0.60252,1
0.446629,0.508312,0.449371,0.480464,0.573669,0.213361,0.462121,0.464172,0.278275,1
0.481958,0.736284,0.39764,0.160155,0.651165,0.276049,0.504111,0.480706,0.364426,1
0.474347,0.608029,0.265442,0.492394,0.499267,0.56945,0.37468,0.140167,0.616046,1
0.505771,0.330418,0.288715,0.593135,0.768409,0.531494,0.592619,0.286546,0.75391,1
0.521499,0.489734,0.473111,0.618475,0.581699,0.220246,0.250197,0.398804,0.594885,1
0.392751,0.483848,0.348435,0.497463,0.63418,0.416238,0.420821,0.55302,0.307207,1
0.40375,0.509261,0.419459,0.248275,0.59378,0.480496,0.509438,0.582558,0.644062,1
0.440352,0.575311,0.369168,0.316777,0.581699,0.398479,0.563055,0.494782,0.514211,1
0.560852,0.681581,0.237129,0.578472,0.595412,0.566891,0.370244,0.396395,0.709783,1
0.515835,0.564532,0.219719,0.584862,0.633821,0.40366,0.533553,0.643514,0.323467,1
0.469863,0.604712,0.40327,0.369406,0.581699,0.383415,0.452799,0.471385,0.650485,1
0.561392,0.594428,0.515621,0.561072,0.52366,0.4406,0.525267,0.532673,0.576303,1
0.433835,0.339126,0.188394,0.687,0.876762,0.404981,0.487925,0.383581,0.718296,1
0.505771,0.583348,0.219601,0.323446,0.581699,0.468113,0.732,0.610908,0.453797,1
0.457712,0.550251,0.462009,0.333599,0.57357,0.467553,0.362334,0.563222,0.284381,1
0.617617,0.55862,0.529504,0.752043,0.581699,0.274568,0.423814,0.531319,0.356068,1
0.513193,0.516251,0.213386,0.585544,0.709244,0.629215,0.394336,0.332286,0.463994,1
0.495149,0.572764,0.315395,0.482971,0.581699,0.513635,0.516241,0.431746,0.564055,1
0.441054,0.330374,0.3478,0.822567,0.595695,0.465712,0.461378,0.251237,0.211013,1
0.681447,0.640652,0.514938,0.911334,0.529383,0.546206,0.647264,0.654344,0.355361,1
0.49206,0.513213,0.444077,0.598919,0.643349,0.496387,0.389927,0.603385,0.579,1
0.58387,0.713902,0.505595,0.342459,0.444086,0.414675,0.48558,0.452095,0.616261,1
0.625495,0.621004,0.35187,0.47772,0.418367,0.305306,0.517745,0.537973,0.282789,1
0.338575,0.468725,0.389917,0.28661,0.678364,0.18665,0.421618,0.625841,0.759678,1
0.626035,0.592761,0.257069,0.602063,0.56745,0.249299,0.380398,0.47907,0.820729,1
0.564247,0.592335,0.255728,0.513127,0.542245,0.467218,0.611874,1,0.265413,1
0.528761,0.491735,0.310941,0.569892,0.474196,0.276735,0.317801,0.668339,0.903116,1
0.414288,0.486128,0.208644,0.450471,0.696978,0.391764,0.52007,0.280704,0.496201,1
0.50637,0.477394,0.340601,0.557308,0.706694,0.682147,0.399353,0.685557,0.34336,1
0.560872,0.441059,0.370918,0.725184,0.581699,0.501805,0.39851,0.648109,0.39373,1
0.353264,0.446182,0.372372,0.319509,0.601214,0.28881,0.424392,0.679959,0.441013,1
0.698352,0.603873,0.388319,0.724172,0.468212,0.569254,0.531286,0.666247,0.21166,1
0.368106,0.217308,0.308585,0.700126,0.579671,0.48335,0.584125,0.623556,0.43485,1
0.491784,0.330108,0.239257,0.73068,0.540109,0.184377,0.459158,0.43664,0.592611,1
0.543482,0.52749,0.411942,0.438592,0.439743,0.43844,0.40599,0.651992,0.600768,1
0.505771,0.590027,0.382487,0.32201,0.673127,0.420377,0.472676,0.61186,0.158898,1
0.350136,0.342769,0.218267,0.622697,0.680676,0.450411,0.295848,0.664618,0.501708,1
0.407944,0.356898,0.342103,0.595125,0.727795,0.453963,0.554867,0.565729,0.47331,1
0.534049,0.415597,0.358754,0.724822,0.581699,0.384275,0.490182,0.666254,0.519104,1
0.502393,0.523948,0.476171,0.679065,0.581699,0.550336,0.574393,0.341765,0.421433,1
0.505771,0.381242,0.3187,0.824637,0.69593,0.49359,0.510916,0.490121,0.726822,1
0.505771,0.513505,0.335986,0.762174,0.522553,0.416275,0.482823,0.501347,0.699479,1
0.618236,0.634174,0.219285,0.541628,0.623863,0.488559,0.606006,0.581608,0.59345,1
0.505771,0.470706,0.286429,0.614254,0.639937,0.592309,0.494237,0.504892,0.324831,1
0.593167,0.392242,0.294424,0.868608,0.568418,0.347708,0.442756,0.278423,0.516403,1
0.55122,0.595771,0.34609,0.519441,0.397536,0.549841,0.354052,0.684019,0.66515,1
0.539702,0.518803,0.477631,0.588405,0.627641,0.599767,0.659316,0.639431,0.500883,1
0.348695,0.32485,0.30841,0.54111,0.825827,0.308752,0.429095,0.610051,0.302552,1
0.593662,0.575554,0.33234,0.741172,0.581699,0.520318,0.748703,0.643139,0.569492,1
0.271459,0.23147,0.23945,0.577506,0.82254,0.351032,0.52384,0.532673,0.571748,1
0.291685,0.560432,0.332232,0.122761,0.603917,0.444214,0.384164,0.556147,0.28831,1
0.505771,0.559102,0.25116,0.497316,0.676627,0.312084,0.334903,0.196143,0.591014,1
0.347505,0.459311,0.24466,0.429528,0.804013,0.265836,0.500637,0.553198,0.477401,1
0.68748,0.616415,0.408083,0.746141,0.568628,0.371719,0.692627,0.690418,0.220317,1
0.370627,0.477204,0.366585,0.467011,0.56094,0.390092,0.637563,0.723471,0.438552,1
0.560213,0.55641,0.271011,0.746489,0.581699,0.672975,0.444109,0.372576,0.691872,1
0.422638,0.502347,0.454087,0.502748,0.569892,0.432535,0.70644,0.568362,0.322851,1
0.409264,0.459001,0.229596,0.390457,0.682196,0.507461,0.54499,0.465834,0.690216,1
0.405587,0.347324,0.296457,0.531768,0.821654,0.311774,0.632739,0.62233,0.752464,1
0.527613,0.522879,0.427394,0.632028,0.581699,0.566056,0.64083,0.583405,0.442687,1
0.537088,0.591068,0.272162,0.486627,0.612741,0.234388,0.676482,0.532673,0.345193,1
0.531873,0.704198,0.213303,0.327278,0.581699,0.608499,0.576164,0.501243,0.687597,1
0.553853,0.626301,0.276632,0.59742,0.611089,0.355964,0.561246,0.375341,0.639634,1
0.654261,0.536799,0.268583,0.763872,0.490714,0.390263,0.114817,0.444003,0.756733,1
0.535499,0.723385,0.366312,0.241791,0.477607,0.307794,0.534149,0.640648,0.451489,1
0.538736,0.662763,0.304674,0.312541,0.42397,0.464757,0.588336,0.426763,0.542173,1
0.511361,0.413674,0.414915,0.770061,0.677772,0.26067,0.50758,0.409293,0.537279,1
0.505771,0.251997,0.440519,0.769734,0.581699,0.333157,0.433227,0.50734,0.390667,1
0.417477,0.361809,0.218273,0.667641,0.754646,0.614761,0.460436,0.737259,0.54605,1
0.505771,0.56003,0.576259,0.618706,0.35389,0.464796,0.513581,0.363081,0.365787,1
0.375601,0.593044,0.474621,0.272556,0.60404,0.318413,0.607855,0.287308,0.431233,1
0.530046,0.599595,0.29788,0.499093,0.644749,0.598258,0.3788,0.358927,0.751327,1
0.505304,0.585756,0.269567,0.587825,0.581699,0.590169,0.256015,0.630211,0.648316,1
0.584944,0.394993,0.297367,0.931068,0.684944,0.186878,0.370571,0.641137,0.427209,1
0.553152,0.501051,0.496922,0.60186,0.581699,0.232474,0.572121,0.479739,0.710471,1
0.592133,0.634955,0.386876,0.405574,0.641874,0.582748,0.34504,0.458987,0.536819,1
0.57323,0.602439,0.248522,0.572802,0.53721,0.340697,0.276734,0.443945,0.507647,1
0.632066,0.780459,0.395639,0.395069,0.318513,0.546239,0.423848,0.376231,0.858825,1
0.459887,0.562605,0.428976,0.424574,0.549531,0.674498,0.400075,0.445904,0.364976,1
0.505771,0.480116,0.274333,0.521878,0.689359,0.390286,0.359902,0.371295,0.568991,1
0.586111,0.570324,0.280654,0.507837,0.419765,0.288632,0.394851,0.674813,0.695694,1
0.593598,0.559391,0.376637,0.704002,0.580266,0.19381,0.376432,0.510333,0.386284,1
0.505771,0.698621,0.374062,0.649009,0.59699,0.535011,0.497843,0.714312,0.478525,1
0.559569,0.701509,0.416606,0.309081,0.490754,0.456857,0.562801,0.78014,0.63621,1
0.581619,0.628234,0.32493,0.555372,0.641697,0.324064,0.671314,0.429827,0.598808,1
0.421174,0.426939,0.372724,0.562411,0.646978,0.38516,0.619294,0.644049,0.535223,1
0.505771,0.65536,0.251149,0.467674,0.561045,0.386663,0.477101,0.645797,0.385739,1
0.307907,0.330078,0.189173,0.411386,0.668858,0.428228,0.666219,0.38439,0.325652,1
0.563984,0.439955,0.466334,0.703677,0.639081,0.587475,0.375202,0.641905,0.556198,1
0.490214,0.497108,0.184844,0.453816,0.667869,0.656582,0.269996,0.271874,0.73611,1
0.450341,0.602934,0.490059,0.380335,0.581699,0.27565,0.488417,0.347539,0.69199,1
0.469906,0.565765,0.362096,0.461599,0.768732,0.6404,0.379231,0.572768,0.53735,1
0.640517,0.794534,0.560301,0.356757,0.581699,0.282905,0.462199,0.521018,0.433401,1
0.505771,0.431543,0.227912,0.677479,0.686129,0.545513,0.392841,0.479192,0.264392,1
0.530221,0.58984,0.504909,0.471445,0.520134,0.4886,0.559616,0.331569,0.427809,1
0.654768,0.497386,0.351623,0.929564,0.498617,0.237995,0.558604,0.40819,0.752366,1
0.604907,0.379127,0.309119,0.906336,0.743706,0.338389,0.295085,0.564099,0.553148,1
0.463297,0.64339,0.434868,0.228257,0.539937,0.352178,0.324331,0.511023,0.339723,1
0.317078,0.517684,0.337295,0.159268,0.581699,0.584318,0.608468,0.508065,0.452681,1
0.556627,0.509556,0.341065,0.801057,0.742575,0.492317,0.354898,0.650512,0.491091,1
0.514658,0.513179,0.508891,0.623956,0.581699,0.380225,0.516253,0.558267,0.381042,1
0.469218,0.585071,0.472903,0.502005,0.564433,0.221387,0.389283,0.527431,0.520836,1
0.505771,0.489045,0.282726,0.63174,0.581699,0.217438,0.368008,0.494541,0.513287,1
0.306549,0.277757,0.290898,0.645894,0.581699,0.641925,0.516583,0.739262,0.598618,1
0.505771,0.467847,0.202832,0.676045,0.641331,0.284925,0.401642,0.671978,0.558494,1
0.351507,0.416656,0.22667,0.473958,0.649989,0.2733,0.729421,0.52706,0.346982,1
0.480513,0.544112,0.421821,0.516635,0.61821,0.510347,0.622139,0.557579,0.512053,1
0.411221,0.368372,0.526954,0.690924,0.540359,0.395653,0.380113,0.336526,0.431118,1
0.417311,0.616241,0.481459,0.299578,0.566723,0.226083,0.464958,0.50232,0.456664,1
0.632007,0.729567,0.319721,0.730266,0.552088,0.401609,0.610644,0.551793,0.307203,0
0.419018,0.360669,0.317835,0.353541,0.542602,0.407344,0.510451,0.678763,0.535321,0
0.430071,0.475416,0.209736,0.594349,0.581699,0.44734,0.443325,0.479746,0.634528,0
0.537852,0.451164,0.439054,0.36615,0.708012,0.251139,0.443936,0.782912,0.592801,0
0.474979,0.519057,0.260572,0.383793,0.581699,0.669255,0.622338,0.341365,0.309166,0
0.364128,0.491081,0.382052,0.687029,0.560562,0.46179,0.4957,0.550617,0.638934,0
0.463142,0.48247,0.47141,0.544011,0.560463,0.337832,0.600991,0.610097,0.234192,0
0.505771,0.746187,0.192375,0.315644,0.557944,0.421267,0.420241,0.318948,0.368679,0
0.404979,0.552176,0.151445,0.661937,0.609281,0.343855,0.750206,0.646998,0.086995,0
0.580551,0.564537,0.211901,0.46645,0.662657,0.399152,0.615988,0.634353,0.528299,0
0.650494,0.588257,0.27187,0.13704,0.581699,0.197298,0.224686,0.563455,0.517437,0
0.541126,0.56749,0.337146,0.607226,0.582414,0.613486,0.46115,0.599542,0.326419,0
0.589026,0.579415,0.50503,0.449656,0.578831,0.327958,0.587508,0.440462,0.564049,0
0.210391,0.287698,0.271047,0.801988,0.581699,0.48045,0.304871,0.637443,0.684436,0
0.354576,0.438356,0.285252,0.733724,0.581312,0.30005,0.578304,0.539619,0.626149,0
0.356528,0.341651,0.725357,0.619094,0.586625,0.617683,0.503865,0.50428,0.468255,0
0.360402,0.479776,0.365097,0.764645,0.475598,0.470067,0.460376,0.659801,0.355793,0
0.505771,0.576119,0.293897,0.460676,0.63392,0.639741,0.366278,0.499833,0.381842,0
0.790675,0.757258,0.709534,0.289285,0.581699,0.440655,0.391854,0.446163,0.648613,0
0.412524,0.443597,0.236261,0.540885,0.654111,0.619329,0.366761,0.539981,0.702261,0
0.643721,0.802516,0.209232,0.569365,0.651468,0.644116,0.376087,0.510785,0.664082,0
0.287972,0.355655,0.242741,0.612823,0.581514,0.282404,0.44469,0.68911,0.489306,0
0.563009,0.682045,0.084661,0.479378,0.581699,0.458874,0.382319,0.271425,0.740059,0
0.625678,0.62566,0.542538,0.417618,0.554038,0.458267,0.596297,0.640991,0.272183,0
0.475261,0.453958,0.56637,0.621316,0.467604,0.363704,0.52385,0.545496,0.646891,0
0.505771,0.480719,0.35693,0.621878,0.581699,0.358364,0.30192,0.561137,0.66431,0
0.319563,0.263591,0.487516,0.471027,0.581699,0.441124,0.241796,0.807177,0.651098,0
0.667819,0.742555,0.210431,0.45572,0.543487,0.29436,0.418004,0.471056,0.440163,0
0.49021,0.626481,0.381894,0.489984,0.443689,0.252227,0.431906,0.719402,0.44547,0
0.5901,0.5831,0.403077,0.357966,0.581699,0.453904,0.647343,0.405033,0.255328,0
0.63288,0.675367,0.315721,0.482745,0.581699,0.181738,0.417366,0.197335,0.194115,0
0.535465,0.579289,0.642015,0.637348,0.557917,0.678639,0.464137,0.532673,0.36177,0
0.726012,0.711571,0.266012,0.284945,0.51656,0.535472,0.575603,0.674445,0.393447,0
0.505771,0.435392,0.184074,0.575946,0.65906,0.776176,0.457913,0.601103,0.498426,0
0.431416,0.422915,0.157992,0.57701,0.629935,0.33804,0.554347,0.525747,0.467719,0
0.505771,0.49351,0.202853,0.737832,0.542199,0.526286,0.42566,0.374125,0.338518,0
0.432707,0.368857,0.382269,0.484151,0.493419,0.370388,0.590622,0.433872,0.533135,0
0.571787,0.507082,0.804851,0.312118,0.487733,0.447386,0.451035,0.532673,0.725804,0
0.505771,0.529687,0.298791,0.600376,0.581699,0.337206,0.442504,0.348905,0.231914,0
0.502739,0.551942,0.387976,0.616673,0.543941,0.416499,0.374102,0.512628,0.590958,0
0.505771,0.56272,0.36016,0.51362,0.499819,0.441918,0.440494,0.514901,0.572522,0
0.588364,0.599896,0.395592,0.396241,0.581699,0.461779,0.391184,0.387978,0.422778,0
0.469577,0.506044,0.367825,0.458729,0.573216,0.355919,0.377875,0.582964,0.666917,0
0.524151,0.512972,0.487996,0.556996,0.513065,0.496654,0.339237,0.376804,0.43229,0
0.346507,0.359805,0.326842,0.46877,0.681592,0.288597,0.500641,0.456361,0.414843,0
0.494137,0.638034,0.288003,0.598348,0.484057,0.432737,0.384326,0.552472,0.23473,0
0.479238,0.649259,0.129992,0.574592,0.457123,0.180623,0.37044,0.414866,0.496197,0
0.492432,0.446655,0.281655,0.379083,0.665592,0.804573,0.574068,0.325961,0.589685,0
0.704623,0.83662,0.207815,0.513235,0.540811,0.533618,0.465569,0.681968,0.42577,0
0.505771,0.590416,0.436297,0.31004,0.568548,0.28509,0.494605,0.532673,0.653037,0
0.574264,0.676205,0.129386,0.621606,0.581699,0.489152,0.409117,0.551775,0.449246,0
0.701765,0.618761,0.242996,0.217051,0.581699,0.555119,0.484162,0.336115,0.335798,0
0.777665,0.85771,0.24392,0.33695,0.582849,0.418152,0.402394,0.578965,0.48292,0
0.702243,0.784211,0.213844,0.486491,0.473749,0.491303,0.375568,0.610759,0.352015,0
0.46632,0.469755,0.299023,0.448632,0.588859,0.542082,0.434148,0.780501,0.494097,0
0.292244,0.360395,0.392924,0.540351,0.436591,0.526023,0.322282,0.562472,0.851262,0
0.505771,0.545102,0.207556,0.479419,0.663925,0.563704,0.639555,0.645847,0.387757,0
0.505771,0.672607,0.529986,0.497117,0.609602,0.464994,0.448279,0.423116,0.324332,0
0.505771,0.526623,0.594351,0.556319,0.581699,0.511777,0.566527,0.662834,0.54339,0
0.441083,0.529035,0.534498,0.825414,0.592296,0.408175,0.41371,0.560833,0.357604,0
0.624009,0.760992,0.20368,0.780787,0.64601,0.568134,0.350095,0.55725,0.36274,0
0.588639,0.716955,0.290291,0.705708,0.629533,0.284289,0.448456,0.532673,0.60811,0
0.653735,0.66055,0.397985,0.523705,0.692254,0.374079,0.461813,0.32643,0.442953,0
0.505771,0.585457,0.185351,0.476969,0.581699,0.394387,0.18662,0.613697,0.446859,0
0.451255,0.347736,0.365428,0.417853,0.596247,0.686063,0.50251,0.391328,0.36851,0
0.40658,0.429734,0.362447,0.495553,0.511665,0.609571,0.35525,0.532673,0.611153,0
0.505771,0.560052,0.479221,0.280049,0.556944,0.432235,0.25362,0.613618,0.503937,0
0.505771,0.335604,0.510624,0.491249,0.617677,0.344993,0.587911,0.438584,0.583509,0
0.513678,0.464391,0.568297,0.397302,0.577211,0.401879,0.362682,0.483068,0.542765,0
0.527222,0.511014,0.197017,0.402467,0.608582,0.513795,0.598729,0.305036,0.546935,0
0.440894,0.509101,0.167104,0.576952,0.549728,0.499436,0.729271,0.547011,0.506709,0
0.648308,0.611119,0.227115,0.365403,0.580913,0.227877,0.328595,0.554726,0.375683,0
0.632437,0.6367,0.310935,0.418322,0.757686,0.499432,0.316246,0.592567,0.380289,0
0.483433,0.480152,0.385381,0.389832,0.580058,0.489713,0.435149,0.485415,0.509701,0
0.505771,0.579005,0.4967,0.319859,0.604736,0.370772,0.512055,0.654569,0.313801,0
0.61023,0.49503,0.53716,0.185892,0.652092,0.786933,0.579814,0.54717,0.264299,0
0.683204,0.741315,0.276415,0.461932,0.618427,0.400166,0.629392,0.667017,0.327624,0
0.392842,0.372314,0.703943,0.486779,0.549715,0.185015,0.345993,0.576684,0.419403,0
0.371137,0.463289,0.544315,0.630564,0.540446,0.529495,0.559876,0.759512,0.742277,0
0.52028,0.544703,0.374207,0.716306,0.577597,0.468434,0.469678,0.561911,0.401184,0
0.41946,0.500457,0.230231,0.730976,0.581099,0.398052,0.480507,0.514723,0.433176,0
0.409695,0.402212,0.411158,0.577425,0.706027,0.676427,0.437802,0.610199,0.620713,0
0.439887,0.466461,0.427675,0.737316,0.621803,0.47603,0.423551,0.489362,0.686424,0
0.521026,0.523561,0.677254,0.388189,0.546318,0.281569,0.444158,0.435864,0.356699,0
0.503876,0.598484,0.117051,0.655586,0.581699,0.375213,0.351876,0.604252,0.629725,0
0.505771,0.553191,0.421178,0.480547,0.588133,0.285886,0.400016,0.374134,0.321756,0
0.224908,0.344007,0.376583,0.62053,0.466325,0.367849,0.257609,0.548252,0.3811,0
0.404662,0.418794,0.518207,0.62313,0.629723,0.645848,0.514646,0.581845,0.590248,0
0.593638,0.719236,0.124923,0.663827,0.694438,0.292266,0.456164,0.681496,0.55938,0
0.506864,0.578166,0.397786,0.39357,0.581699,0.321613,0.394452,0.637321,0.589858,0
0.568365,0.550163,0.330095,0.612133,0.713228,0.265228,0.472715,0.499005,0.431059,0
0.528588,0.621682,0.128314,0.464529,0.516322,0.589742,0.497561,0.406443,0.648538,0
0.69533,0.716367,0.306295,0.343951,0.572779,0.354045,0.486475,0.532673,0.388826,0
0.574126,0.550549,0.657527,0.544455,0.581699,0.196464,0.461865,0.551877,0.401308,0
0.505771,0.736839,0.397619,0.542904,0.613895,0.427763,0.4515,0.482077,0.879114,0
0.405844,0.375977,0.427748,0.414841,0.581699,0.501853,0.246122,0.823518,0.742136,0
0.599608,0.641713,0.388147,0.34226,0.592012,0.516029,0.575237,0.52115,0.427769,0
0.609164,0.653825,0.44382,0.573333,0.627774,0.361372,0.398917,0.644546,0.594994,0
0.445575,0.474682,0.354621,0.527075,0.587615,0.185516,0.58467,0.374935,0.453452,0
0.41933,0.503266,0.305205,0.637357,0.567415,0.429649,0.425288,0.417196,0.430854,0
0.459552,0.469455,0.434024,0.483872,0.532742,0.565941,0.732552,0.481806,0.315356,0
0.433526,0.556724,0.147805,0.707282,0.558096,0.470322,0.3917,0.593662,0.655097,0
0.475747,0.659821,0.152887,0.856939,0.560056,0.450526,0.72636,0.319309,0.420332,0
0.536151,0.510678,0.518824,0.41975,0.583027,0.445763,0.498888,0.345788,0.622803,0
0.421082,0.524532,0.236166,0.591293,0.502251,0.434167,0.491116,0.358177,0.685425,0
0.46066,0.621981,0.205096,0.826355,0.581699,0.419357,0.222621,0.635618,0.49445,0
0.610752,0.588521,0.362136,0.180234,0.548691,0.406026,0.413669,0.342781,0.594063,0
0.50876,0.493198,0.508568,0.318828,0.581699,0.402429,0.454638,0.620206,0.434949,0
0.611333,0.604571,0.631246,0.489714,0.514202,0.351728,0.524788,0.458039,0.215662,0
0.330307,0.26698,0.37206,0.621924,0.690387,0.13829,0.415863,0.533948,0.373275,0
0.505771,0.347007,0.311456,0.448714,0.68707,0.532606,0.449223,0.511628,0.504309,0
0.435099,0.524821,0.278445,0.671236,0.581699,0.405283,0.403824,0.68382,0.685483,0
0.689904,0.699755,0.327533,0.524362,0.696478,0.675517,0.51292,0.446999,0.603023,0
0.579687,0.553759,0.249434,0.445723,0.581699,0.418944,0.234493,0.430283,0.559427,0
0.505771,0.586642,0.123543,0.57277,0.865534,0.419931,0.542231,0.532673,0.568093,0
0.493919,0.57607,0.164555,0.58076,0.555018,0.594267,0.535392,0.547687,0.290908,0
0.524137,0.512773,0.393155,0.508247,0.560334,0.55766,0.428098,0.52872,0.46994,0
0.554722,0.598079,0.391166,0.592868,0.667787,0.494221,0.508247,0.562767,0.557743,0
0.602427,0.698772,0.172435,0.631464,0.534901,0.427888,0.225178,0.393731,0.324771,0
0.492254,0.495635,0.214358,0.509936,0.581775,0.572165,0.551196,0.656933,0.663441,0
0.424726,0.519128,0.204359,0.672231,0.553199,0.556875,0.391396,0.432879,0.652984,0
0.45456,0.580323,0.156368,0.736902,0.544358,0.498565,0.649665,0.466708,0.489503,0
0.380843,0.371875,0.318078,0.531831,0.588051,0.182762,0.463547,0.368125,0.621077,0
0.505771,0.671649,0.169328,0.564083,0.582478,0.630798,0.452626,0.685346,0.633203,0
0.604715,0.641088,0.36453,0.494471,0.448665,0.259786,0.595559,0.625333,0.47204,0
0.530448,0.524909,0.602073,0.371754,0.581699,0.715252,0.633578,0.194677,0.550829,0
0.801367,0.689721,0.353836,0.213097,0.581699,0.336688,0.521243,0.517178,0.81293,0
0.407751,0.506543,0.194933,0.621253,0.632255,0.692337,0.46581,0.532673,0.358156,0
0.468545,0.379711,0.366187,0.579969,0.734365,0.37131,0.302968,0.442542,0.418692,0
0.400451,0.518344,0.196815,0.641625,0.518933,0.381428,0.625453,0.539407,0.434627,0
0.505771,0.492535,0.328217,0.504023,0.717151,0.285881,0.34247,0.575738,0.460836,0
0.505771,0.506316,0.470687,0.409864,0.580117,0.519865,0.490859,0.560328,0.419147,0
0.505771,0.640056,0.137937,0.643245,0.581699,0.338647,0.506929,0.517809,0.376309,0
0.538524,0.652482,0.201785,0.71668,0.613978,0.282865,0.404945,0.665966,0.692783,0
0.632122,0.545344,0.325228,0.378116,0.569559,0.306007,0.370991,0.364823,0.29073,0
0.548769,0.595708,0.203631,0.494743,0.715692,0.312356,0.458824,0.561501,0.679581,0
0.505771,0.455349,0.396101,0.522947,0.581699,0.68224,0.358233,0.45238,0.619275,0
0.460585,0.486622,0.29783,0.655645,0.581699,0.300984,0.449786,0.594283,0.469316,0
0.728529,0.75908,0.466008,0.594019,0.560925,0.648199,0.252983,0.532673,0.5549,0
0.554728,0.637036,0.240113,0.444213,0.581699,0.526218,0.174244,0.66889,0.420538,0
0.505771,0.521848,0.282724,0.659705,0.581699,0.248887,0.646468,0.493439,0.50658,0
0.696898,0.714672,0.289283,0.532059,0.581699,0.273196,0.822516,0.588141,0.434677,0
0.505771,0.406132,1,0.263138,0.522614,0.342015,0.576502,0.660862,0.455815,0
0.457628,0.491321,0.287821,0.556615,0.578037,0.379982,0.578606,0.513802,0.590654,0
0.505771,0.745841,0.468654,0.639716,0.669685,0.521485,0.521957,0.56806,0.613923,0
0.60323,0.656859,0.470323,0.456192,0.581699,0.31515,0.473342,0.485748,0.557895,0
0.295503,0.249939,0.275522,0.649723,0.550782,0.313302,0.21641,0.569835,0.544026,0
0.54828,0.67419,0.383412,0.630567,0.581699,0.08941,0.622966,0.488842,0.678854,0
0.505771,0.711847,0.339142,0.481429,0.629064,0.535224,0.316154,0.676939,0.398647,0
0.407221,0.446383,0.275843,0.718905,0.698166,0.345173,0.336098,0.507499,0.852099,0
0.45547,0.471824,0.671887,0.494553,0.581699,0.533912,0.432597,0.524317,0.512684,0
0.394124,0.519558,0.284328,0.796388,0.581699,0.49041,0.39585,0.358179,0.581037,0
0.27533,0.304558,0.31719,0.579374,0.501044,0.480938,0.561867,0.655418,0.537046,0
0.539863,0.748694,0.267985,0.851068,0.581699,0.654793,0.496346,0.657203,0.514087,0
0.527674,0.605244,0.186741,0.69837,0.700239,0.306583,0.497491,0.644912,0.4501,0
0.55453,0.530625,0.32342,0.625627,0.69482,0.338526,0.353869,0.229232,0.503599,0
0.505771,0.573538,0.40225,0.538151,0.569281,0.358172,0.269083,0.559499,0.52982,0
0.536382,0.52608,0.274597,0.662532,0.618531,0.148418,0.526056,0.669505,0.542987,0
0.505771,0.262807,0.36138,0.602704,0.631085,0.508133,0.553365,0.502256,0.606806,0
0.361234,0.391944,0.30675,0.461753,0.50237,0.588638,0.520017,0.782569,0.563863,0
0.416467,0.428141,0.48764,0.632571,0.583466,0.546762,0.554276,0.558503,0.707528,0
0.418549,0.420995,0.310479,0.484515,0.597594,0.501685,0.672379,0.495311,0.245289,0
0.63512,0.498519,0.681055,0.239341,0.590991,0.48892,0.441207,0.335384,0.580941,0
0.725301,0.713758,0.401191,0.341241,0.485178,0.360414,0.504352,0.568588,0.431253,0
0.505771,0.652905,0.521806,0.257914,0.547313,0.440306,0.363605,0.456845,0.402919,0
0.548797,0.631659,0.413011,0.748569,0.581699,0.334558,0.377565,0.415006,0.629859,0
0.532539,0.645221,0.261404,0.614646,0.628093,0.262635,0.418198,0.482096,0.279895,0
0.505771,0.618491,0.615686,0.622101,0.581699,0.325406,0.506553,0.289697,0.292074,0
0.343702,0.373675,0.447029,0.564974,0.474397,0.594688,0.54007,0.353317,0.266779,0
0.408581,0.489706,0.215789,0.618549,0.581699,0.384755,0.427654,0.423609,0.390103,0
0.711536,0.831608,0.302469,0.68953,0.659662,0.482755,0.741934,0.754509,0.711966,0
0.230784,0.26607,0.21952,0.50755,0.565974,0.13981,0.620925,0.439017,0.346364,0
0.727745,0.867403,0.111398,0.742743,0.547356,0.448355,0.408874,0.63275,0.602239,0
0.447351,0.502556,0.079403,0.583357,0.594253,0.679896,0.475151,0.532673,0.594615,0
0.528558,0.661406,0.464813,0.65438,0.492331,0.447459,0.372703,0.631488,0.445022,0
0.662262,0.757517,0.436594,0.423858,0.413731,0.500593,0.389911,0.723394,0.433769,0
0.336013,0.44438,0.110135,0.675933,0.536402,0.188952,0.224883,0.510514,0.508413,0
0.618199,0.619317,0.237716,0.454955,0.673657,0.411617,0.258794,0.583167,0.699213,0
0.572769,0.655367,0.44469,0.480576,0.581699,0.547577,0.249681,0.449862,0.549495,0
0.584955,0.660797,0.211417,0.442736,0.58249,0.74141,0.48511,0.83225,0.423199,0
0.667221,0.663777,0.294439,0.451035,0.581699,0.197774,0.410297,0.739226,0.595346,0
0.505771,0.655877,0.300007,0.434693,0.581699,0.513784,0.439565,0.436099,0.50536,0
0.349426,0.384756,0.151686,0.586698,0.627287,0.551516,0.354698,0.48979,0.464033,0
0.43263,0.596078,0.067634,0.716658,0.581699,0.236838,0.596414,0.428382,0.36076,0
0.403937,0.360293,0.31115,0.472755,0.532612,0.50434,0.374384,0.497043,0.557979,0
0.56359,0.425388,0.284439,0.531457,0.581699,0.791514,0.757746,0.264001,0.602522,0
0.850553,0.909227,0.275214,0.432641,0.581699,0.382694,0.454535,0.516222,0.530614,0
0.629391,0.808067,0.194027,0.795973,0.657033,0.447718,0.526923,0.544697,0.782264,0
0.294756,0.237919,0.66016,0.480466,0.581699,0.368317,0.52082,0.552153,0.388495,0
0.409668,0.369034,0.464767,0.369556,0.581699,0.49675,0.383216,0.528726,0.498214,0
0.571484,0.689491,0.297148,0.623979,0.508496,0.375779,0.432664,0.665374,0.580301,0
0.626789,0.522666,0.352143,0.344345,0.733588,0.444235,0.370697,0.448566,0.450123,0
0.593131,0.636645,0.422119,0.528922,0.581699,0.326655,0.466804,0.562499,0.367301,0
0.363017,0.523537,0.285985,0.685693,0.513556,0.405126,0.387246,0.71518,0.681864,0
0.415253,0.49548,0.16076,0.484148,0.512601,0.45485,0.353953,0.622821,0.429462,0
0.244457,0.340483,0.257719,0.615477,0.581699,0.698401,0.321965,0.764316,0.42092,0
0.422384,0.366989,0.232272,0.454567,0.581699,0.429402,0.46833,0.452065,0.198493,0
0.484502,0.684992,0.12959,0.703003,0.581699,0.558765,0.359797,0.737802,0.629383,0
0.48829,0.573958,0.295542,0.497914,0.479609,0.547339,0.444786,0.567703,0.662225,0
0.348885,0.32328,0.460897,0.633143,0.581699,0.357816,0.445666,0.592937,0.409662,0
0.595111,0.694835,0.185775,0.279549,0.41872,0.393036,0.50616,0.532673,0.234901,0
0.558547,0.644469,0.264062,0.527696,0.523159,0.405214,0.504813,0.259154,0.18006,0
0.38774,0.433764,0.404051,0.596093,0.582583,0.382804,0.612228,0.564446,0.264293,0
0.325475,0.395336,0.231171,0.713056,0.581699,0.52856,0.218304,0.439519,0.556297,0
0.523786,0.515125,0.526015,0.469227,0.603204,0.540591,0.396072,0.49361,0.225374,0
0.50817,0.540828,0.438408,0.455952,0.581699,0.552654,0.632348,0.478594,0.437263,0
0.455496,0.445407,0.258732,0.397793,0.576248,0.227834,0.517383,0.43221,0.535902,0
0.667017,0.728871,0.280691,0.494237,0.607109,0.566912,0.672139,0.469898,0.079897,0
0.505771,0.30152,0.280901,0.466979,0.548417,0.600081,0.502607,0.605527,0.773553,0
0.638134,0.837165,0.227541,0.608709,0.537898,0.268872,0.554211,0.386326,0.552996,0
0.757185,0.82533,0.348689,0.450945,0.628819,0.261667,0.398881,0.532673,0.761524,0
0.488487,0.539603,0.189739,0.725847,0.671387,0.318819,0.487512,0.327622,0.628954,0
0.400063,0.493818,0.329863,0.73595,0.589167,0.326787,0.340838,0.536111,0.550583,0
0.435895,0.478669,0.392001,0.532551,0.546663,0.602275,0.432113,0.481254,0.159307,0
0.463637,0.513615,0.494739,0.446819,0.478688,0.516619,0.489424,0.375419,0.55253,0
0.607641,0.545221,0.324716,0.477852,0.611104,0.65477,0.261623,0.634381,0.459783,0
0.529521,0.540532,0.281488,0.466317,0.642458,0.20888,0.420616,0.647943,0.347912,0
0.505771,0.743484,0.326343,0.173014,0.629342,0.47824,0.3767,0.556167,0.698893,0
0.541874,0.520357,0.26416,0.421685,0.581699,0.387011,0.448509,0.767833,0.54856,0
0.507382,0.733272,0.06739,0.615246,0.466092,0.15206,0.62157,0.54953,0.561012,0
0.439535,0.419938,0.785714,0.532431,0.484522,0.285443,0.113386,0.444508,0.637166,0
0.169769,0.299,0.186568,0.753253,0.489815,0.563822,0.250623,0.613106,0.412028,0
0.536774,0.609403,0.274134,0.553036,0.58703,0.528407,0.472523,0.52976,0.538804,0
0.531799,0.645524,0.400954,0.696399,0.581699,0.385815,0.510957,0.700507,0.413669,0
0.345378,0.322327,0.372873,0.407685,0.653162,0.674957,0.356544,0.487059,0.412887,0
0.598306,0.727989,0.451567,0.52826,0.608066,0.440609,0.630609,0.426456,0.804304,0
0.567565,0.600795,0.27007,0.343901,0.464219,0.518805,0.459381,0.659704,0.40375,0
0.623413,0.562176,0.413766,0.272269,0.562189,0.490462,0.552163,0.840772,0.450282,0
0.434959,0.57976,0.180905,0.668207,0.534837,0.612538,0.363001,0.386334,0.551496,0
0.512309,0.522168,0.236119,0.485722,0.525143,0.600755,0.399624,0.872347,0.308984,0
0.595211,0.685912,0.304745,0.307138,0.581699,0.355412,0.49506,0.444336,0.370259,0
0.505771,0.669375,0.347089,0.651388,0.658102,0.338542,0.382329,0.536471,0.473642,0
0.325955,0.382585,0.216228,0.559524,0.59536,0.599141,0.457624,0.553928,0.638151,0
0.505771,0.484775,0.488119,0.596762,0.65644,0.343914,0.592895,0.532673,0.391848,0
0.262632,0.457923,0.365484,0.962925,0.454866,0.731379,0.237027,0.396883,0.758456,0
0.505771,0.442247,0.374555,0.618069,0.590994,0.260329,0.480808,0.46745,0.39084,0
0.563506,0.583878,0.404782,0.543584,0.581699,0.475088,0.395773,0.48431,0.488569,0
0.394698,0.510439,0.259285,0.622695,0.581699,0.31824,0.3791,0.60019,0.558028,0
0.347004,0.407206,0.534684,0.574349,0.581699,0.272627,0.801073,0.611352,0.506896,0
0.233773,0.355688,0.116376,0.911469,0.589971,0.441063,0.316432,0.532673,0.542355,0
0.508398,0.503343,0.512394,0.47241,0.586167,0.348153,0.646513,0.609799,0.54517,0
0.558733,0.55341,0.36269,0.386035,0.60813,0.720457,0.385942,0.604551,0.308351,0
0.309576,0.393183,0.213943,0.645943,0.547643,0.360295,0.214921,0.625831,0.219991,0
0.505771,0.60431,0.159566,0.765411,0.723671,0.534988,0.64052,0.411703,0.342172,0
0.631399,0.720494,0.342474,0.576568,0.608036,1,0.563904,0.484318,0.315379,0
0.377905,0.409878,0.146851,0.698244,0.652066,0.495034,0.345625,0.542812,0.393378,0
0.562377,0.490456,0.410733,0.263254,0.663251,0.23381,0.380553,0.525401,0.350991,0
0.510603,0.456454,0.498064,0.343313,0.581699,0.602248,0.473863,0.463111,0.540475,0
0.460972,0.464458,0.409428,0.569435,0.381789,0.341065,0.519364,0.532673,0.778647,0
0.505771,0.516487,0.327674,0.504731,0.581699,0.233188,0.302379,0.372307,0.659863,1
0.403866,0.450936,0.264509,0.54258,0.73546,0.415511,0.368385,0.694214,0.381218,1
0.546477,0.69664,0.246378,0.671303,0.694361,0.426421,0.600904,0.532673,0.490397,1
0.458443,0.457083,0.316821,0.551426,0.547865,0.367545,0.622757,0.370007,0.230852,1
0.489143,0.552591,0.426492,0.546941,0.639861,0.377808,0.763983,0.412106,0.447198,1
0.499406,0.382834,0.329501,0.179757,0.574532,0.487292,0.509018,0.559232,0.430105,1
0.4232,0.232312,0.247806,0.512566,0.621712,0.168056,0.423799,0.595934,0.517854,1
0.53762,0.524988,0.626331,0.490361,0.45917,0.468356,0.415935,0.470791,0.510158,1
0.505771,0.673329,0.596317,0.755242,0.86957,0.27311,0.553083,0.489492,0.642797,1
0.380332,0.345948,0.006696,0.63024,0.581699,0.551734,0.497114,0.481412,0.416336,1
0.645595,0.652633,0.558775,0.408711,0.2899,0.42,0.541434,0.74561,0.426596,1
0.424713,0.378153,0.197615,0.590381,0.605144,0.506486,0.518217,0.461984,0.443057,1
0.442506,0.536871,0.312123,0.685758,0.607537,0.426712,0.57519,0.684527,0.519296,1
0.647344,0.722537,0.453795,0.414714,0.510696,0.442262,0.725749,0.352188,0.431153,1
0.509816,0.591496,0.282166,0.544261,0.490418,0.214661,0.416705,0.515106,0.286289,1
0.445144,0.584842,0.194212,0.642508,0.581699,0.251567,0.423257,0.264821,0.03621,1
0.555776,0.632635,0.65942,0.45355,0.492371,0.66841,0.366017,0.412304,0.595959,1
0.510718,0.694131,0.236224,0.646166,0.91445,0.322204,0.489139,0.425167,0.22384,1
0.326723,0.314733,0.364486,0.613685,0.779314,0.333503,0.347161,0.554179,0.309416,1
0.441379,0.407488,0.348266,0.603627,0.407467,0.574072,0.337569,0.805263,0.283978,1
0.397595,0.385733,0.234027,0.599573,0.581699,0.36122,0.459791,0.606977,0.373371,1
0.505771,0.408656,0.430836,0.535031,0.548505,0.334243,0.354605,0.457667,0.697066,1
0.513226,0.588523,0.403716,0.496209,0.581699,0.560106,0.532132,0.607919,0.473785,1
0.505771,0.411633,0.22366,0.629959,0.715189,0.284459,0.498417,0.607138,0.508896,1
0.499318,0.647431,0.285002,0.539872,0.70695,0.604558,0.443956,0.706633,0.706077,1
0.415053,0.378844,0.412086,0.588819,0.523718,0.546759,0.476884,0.621731,0.375679,1
0.531726,0.594919,0.323161,0.539045,0.581699,0.600081,0.44361,0.398849,0.448264,1
0.312491,0.351135,0.280157,0.668997,0.581699,0.386087,0.441219,0.448247,0.298754,1
0.47161,0.461388,0.349497,0.487619,0.511124,0.832525,0.263006,0.552393,0.405085,1
0.489821,0.673863,0.365853,0.491198,0.679219,0.40386,0.564221,0.501533,0.540099,1
0.505771,0.469147,0.314668,0.595549,0.805064,0.166308,0.555941,0.266303,0.46099,1
0.484987,0.543607,0.364605,0.376904,0.769768,0.42143,0.52554,0.382901,0.57895,1
0.611454,0.715888,0.228773,0.555922,0.531122,0.55801,0.614128,0.459408,0.281568,1
0.505771,0.238469,0.157997,0.468504,0.639994,0.408938,0.669585,0.181222,0.44195,1
0.591218,0.707773,0.203507,0.373913,0.6883,0.664985,0.498851,0.495376,0.435115,1
0.505771,0.400264,0.219859,0.452598,0.581699,0.189318,0.420411,0.484495,0.68415,1
0.494376,0.402116,0.506618,0.518747,0.581699,0.612343,0.355639,0.480769,0.395232,1
0.402637,0.405189,0.442694,0.514029,0.567869,0.238428,0.437219,0.288793,0.294411,1
0.471965,0.667897,0.428525,0.722178,0.821636,0.457861,0.516138,0.49185,0.377597,1
0.353672,0.38369,0.325031,0.675818,0.74445,0.414169,0.36903,0.548828,0.457682,1
0.422367,0.49679,0.665397,0.523666,0.576541,0.667868,0.755455,0.471363,0.463266,1
0.505771,0.671172,0.255345,0.470722,0.523431,0.322007,0.313906,0.478016,0.615764,1
0.414017,0.395061,0.25203,0.630672,0.581699,0.682214,0.588062,0.597627,0.195433,1
0.359977,0.388065,0.372812,0.57987,0.834499,0.540079,0.594957,0.557922,0.645654,1
0.440251,0.501858,0.60686,0.617521,0.581699,0.401672,0.534945,0.683044,0.383295,1
0.452796,0.435224,0.263408,0.606183,0.520961,0.334047,0.754295,0.732816,0.360326,1
0.543619,0.53041,0.331504,0.493333,0.581699,0.372665,0.464344,0.314446,0.747744,1
0.413006,0.554868,0.411209,0.698087,0.581699,0.601633,0.324732,0.432762,0.682428,1
0.460822,0.479147,0.12593,0.457525,0.705251,0.358581,0.507069,0.602412,0.918449,1
0.505771,0.479325,0.776116,0.606286,0.581699,0.642443,0.444447,0.466338,0.422687,1
0.494318,0.54005,0.639183,0.637322,0.53513,0.535133,0.478845,0.332752,0.576445,1
0.467799,0.600272,0.31056,0.595553,0.581699,0.42478,0.397971,0.396291,0.518115,1
0.456659,0.502025,0.278086,0.546223,0.571348,0.25346,0.362084,0.380507,0.414897,1
0.435732,0.410517,0.222734,0.562879,0.675193,0.469459,0.63306,0.5164,0.137058,1
0.454245,0.583154,0.37806,0.676978,0.581699,0.271224,0.45877,0.532673,0.413404,1
0.448034,0.517856,0.235136,0.734443,0.767129,0.467046,0.550083,0.597892,0.597946,1
0.505771,0.412846,0.380064,0.629419,0.581699,0.46743,0.445834,0.563586,0.406546,1
0.535275,0.54372,0.432754,0.535924,0.400228,0.339278,0.418962,0.558589,0.44809,1
0.545376,0.571782,0.286923,0.532661,0.50507,0.330636,0.585702,0.261092,0.472358,1
0.64983,0.784905,0.625422,0.570048,0.41462,0.447278,0.616317,0.598518,0.760761,1
0.574296,0.643586,0.107687,0.609388,0.823664,0.313843,0.391031,0.588016,0.479573,1
0.521208,0.368699,0.256304,0.485174,0.417615,0.325991,0.479811,0.502154,0.609085,1
0.587629,0.521766,0.265182,0.50974,0.581699,0.303296,0.497458,0.5085,0.139668,1
0.572442,0.713434,0.496596,0.576317,0.508443,0.224613,0.783203,0.493587,0.371918,1
0.660921,0.684339,0.205798,0.425282,0.418391,0.259573,0.398815,0.445229,0.400158,1
0.520579,0.613658,0.306357,0.572721,0.653291,0.355352,0.458376,0.426531,0.411607,1
0.347532,0.243141,0.534223,0.557422,0.671252,0.615221,0.534544,0.364341,0.684487,1
0.340202,0.383997,0.368707,0.508002,0.581699,0.596742,0.520518,0.692757,0.193191,1
0.36725,0.234182,0.180075,0.429726,0.739213,0.233879,0.413122,0.652441,0.578669,1
0.349027,0.405837,0.629038,0.627646,0.701357,0.466141,0.560177,0.474154,0.336141,1
0.675294,0.643418,0.345761,0.395749,0.280276,0.437397,0.520013,0.416153,0.493217,1
0.500037,0.623923,0.421815,0.464101,0.756302,0.527816,0.664316,0.37419,0.545224,1
0.59457,0.779082,0.344331,0.526414,0.628712,0.624819,0.593282,0.580924,0.511209,1
0.474511,0.513187,0.534475,0.504071,0.581906,0.271182,0.479188,0.544424,0.588428,1
0.505771,0.58316,0.287563,0.671494,0.631238,0.169232,0.306833,0.417895,0.805387,1
0.482761,0.518351,0.334046,0.503457,0.581699,0.53007,0.290604,0.697356,0.244638,1
0.61635,0.504932,0.219471,0.464739,0.356102,0.369362,0.390331,0.425214,0.306551,1
0.699623,0.750813,0.199809,0.441525,0.460748,0.689965,0.362655,0.648701,0.256595,1
0.384006,0.500952,0.586236,0.727823,0.609284,0.290424,0.452278,0.532673,0.412034,1
0.400238,0.582045,0.600146,0.569812,0.783094,0.576985,0.433534,0.686404,0.463305,1
0.613744,0.657415,0.536768,0.612161,0.581699,0.257187,0.57196,0.532673,0.425655,1
0.519056,0.474536,0.44573,0.445555,0.526632,0.383209,0.439285,0.700896,0.466974,1
0.576047,0.607144,0.440873,0.471012,0.353609,0.539987,0.393059,0.524586,0.354342,1
0.505771,0.634174,0.296942,0.613071,0.581699,0.374157,0.278773,0.641839,0.427483,1
0.452604,0.501458,0.420422,0.614272,0.54773,0.541198,0.32436,0.412246,0.588243,1
0.440453,0.589986,0.617374,0.501622,0.581699,0.062733,0.386561,0.318347,0.636473,1
0.323814,0.443623,0.492247,0.526255,0.807038,0.357033,0.569367,0.564289,0.328728,1
0.639404,0.574773,0.244119,0.208535,0.439927,0.393148,0.648499,0.526532,0.074564,1
0.515055,0.419364,0.228375,0.548019,0.554201,0.454728,0.29092,0.723515,0.569561,1
0.302734,0.317229,0.476534,0.612828,0.631301,0.38636,0.391854,0.673562,0.441941,1
0.590292,0.613438,0.381504,0.42886,0.580917,0.471049,0.247805,0.316936,0.370677,1
0.563808,0.627208,0.231887,0.601597,0.486185,0.275562,0.621595,0.537644,0.500541,1
0.346828,0.356769,0.239455,0.741892,0.74899,0.485792,0.315961,0.418227,0.613945,1
0.373604,0.379634,0.401761,0.46628,0.738567,0.221094,0.398245,0.412838,0.424582,1
0.501235,0.445064,0.325884,0.380766,0.70797,0.579312,0.509808,0.518302,0.652224,1
0.352998,0.432651,0.319926,0.601164,0.844124,0.298247,0.509459,0.550619,0.685602,1
0.688444,0.649414,0.499436,0.508603,0.581699,0.169216,0.44172,0.555971,0.598293,1
0.5241,0.46908,0.29919,0.530339,0.424285,0.430958,0.481724,0.689124,0.66777,1
0.505771,0.70236,0.366724,0.543391,0.581699,0.234534,0.544245,0.368331,0.432067,1
0.505771,0.486768,0.366862,0.537696,0.581699,0.595234,0.336606,0.611611,0.348259,1
0.589828,0.583884,0.324894,0.460163,0.3033,0.606067,0.467846,0.602351,0.582071,1
0.593948,0.661337,0.242289,0.52458,0.581699,0.464225,0.382954,0.622945,0.506433,1
0.505771,0.244119,0.219305,0.753753,0.888635,0.598953,0.35191,0.571265,0.348619,1
0.512257,0.735579,0.363018,0.575004,0.581699,0.491875,0.219287,0.640585,0.599874,1
0.495806,0.483822,0.248122,0.53136,0.558235,0.523547,0.693576,0.493118,0.515969,1
0.505771,0.759922,0.220755,0.3704,0.45823,0.355722,0.595078,0.467434,0.478218,1
0.492039,0.479522,0.49915,0.487462,0.442819,0.370737,0.210767,0.507501,0.274425,1
0.488079,0.475988,0.511282,0.594196,0.492955,0.408516,0.657867,0.532673,0.29714,1
0.58914,0.537221,0.459825,0.393447,0.432434,0.712091,0.608312,0.568343,0.618875,1
0.637313,0.838571,0.355342,0.606938,0.582488,0.357415,0.253007,0.532673,0.826588,1
0.525433,0.679564,0.510426,0.551353,0.438909,0.432396,0.764993,0.703064,0.586106,1
0.505771,0.438814,0.424055,0.67933,0.838853,0.461411,0.324697,0.41488,0.461964,1
0.696622,0.806002,0.162108,0.596951,0.480306,0.696885,0.397035,0.41063,0.37287,1
0.488867,0.49679,0.674597,0.47812,0.581699,0.3787,0.420169,0.552909,0.37112,1
0.493626,0.706075,0.122212,0.60226,0.885251,0.535881,0.619801,0.361576,0.546445,1
0.628703,0.573016,0.210163,0.497046,0.38202,0.380863,0.640193,0.545386,0.488088,1
0.448793,0.686967,0.424705,0.705469,0.566722,0.50596,0.542219,0.553069,0.229518,1
0.45386,0.65218,0.260293,0.564808,0.801877,0.304347,0.29769,0.663259,0.65896,1
0.423483,0.524558,0.310627,0.675919,0.770286,0.485744,0.294776,0.417158,0.405164,1
0.487403,0.445773,0.225466,0.608112,0.581699,0.633945,0.434568,0.62054,0.366111,1
0.524445,0.546758,0.573883,0.384877,0.486906,0.466318,0.390366,0.503037,0.531576,1
0.51043,0.538609,0.363251,0.493153,0.581699,0.52978,0.389544,0.460748,0.7456,1
0.363528,0.364767,0.645893,0.631928,0.581699,0.554712,0.48826,0.677551,0.303279,1
0.613873,0.655546,0.482468,0.4362,0.364027,0.588189,0.527347,0.423586,0.574692,1
0.582103,0.626684,0.388419,0.55046,0.657369,0.490192,0.427765,0.832716,0.66161,1
0.662256,0.821893,0.633194,0.602269,0.326921,0.565057,0.52801,0.499603,0.396976,1
0.501544,0.565012,0.197547,0.508317,0.71529,0.444499,0.471533,0.547577,0.454838,1
0.559526,0.732368,0.214654,0.625414,0.750326,0.458409,0.336527,0.615824,0.533366,1
0.474552,0.562155,0.226413,0.657699,0.602151,0.191657,0.526998,0.516183,0.467122,1
0.482958,0.613367,0.522703,0.655269,0.609609,0.603018,0.694049,0.485012,0.548347,1
0.517392,0.542455,0.483548,0.481033,0.581699,0.246357,0.458044,0.404967,0.626504,1
0.570761,0.594338,0.437244,0.560374,0.581699,0.798303,0.449916,0.556996,0.323486,1
0.543751,0.645869,0.23794,0.597307,0.646791,0.279074,0.490217,0.447469,0.28164,1
0.434357,0.489612,0.508981,0.569255,0.538938,0.554281,0.352414,0.653489,0.121344,1
0.563459,0.805758,0.25352,0.612249,0.581699,0.541062,0.184886,0.630886,0.292695,1
0.475631,0.489523,0.271038,0.525973,0.644537,0.442723,0.552416,0.557141,0.476412,1
0.505771,0.58352,0.380492,0.426485,0.414666,0.496359,0.144841,0.45809,0.332908,1
0.515928,0.479261,0.344692,0.431524,0.581699,0.444323,0.370819,0.63812,0.475753,1
0.505771,0.534226,0.661521,0.553518,0.45829,0.587808,0.541769,0.578894,0.31681,1
0.459123,0.433158,0.195291,0.574932,0.702446,0.299482,0.686992,0.535421,0.274996,1
0.358813,0.3248,0.241681,0.56642,0.797995,0.478092,0.461498,0.578003,0.572386,1
0.505771,0.524591,0.418262,0.451261,0.539517,0.572832,0.449778,0.678047,0.442276,1
0.583143,0.536035,0.444847,0.396124,0.291805,0.608888,0.391779,0.561829,0.420323,1
0.505771,0.563855,0.282153,0.528561,0.515673,0.433334,0.603792,0.631578,0.3946,1
0.376583,0.487141,0.306939,0.677966,0.902546,0.36465,0.341129,0.51182,0.4942,1
0.493077,0.57851,0.289413,0.52415,0.581699,0.735324,0.366862,0.465985,0.571731,1
0.533326,0.599887,0.268589,0.397985,0.674945,0.310262,0.150736,0.372519,0.66963,1
0.528404,0.771337,0.433612,0.604696,0.659355,0.34099,0.599534,0.817193,0.307899,1
0.505771,0.389906,0.487902,0.42619,0.349592,0.227794,0.448454,0.623015,0.503608,1
0.505771,0.648864,0.297906,0.444173,0.652492,0.32428,0.309172,0.490186,0.369931,1
0.395681,0.555982,0.339874,0.741707,0.742987,0.447414,0.488731,0.538948,0.435935,1
0.526869,0.55039,0.27682,0.489272,0.735812,0.307574,0.565069,0.609662,0.484068,1
0.665615,0.979013,0.396953,0.567159,0.648146,0.515908,0.376719,0.550549,0.603653,1
0.47871,0.440032,0.276752,0.472717,0.57289,0.390738,0.330569,0.416793,0.516062,1
0.396255,0.490449,0.444898,0.722825,0.708819,0.725995,0.358822,0.633939,0.566964,1
0.642987,0.783781,0.247248,0.479192,0.642008,0.664855,0.760362,0.493066,0.47776,1
0.652198,0.7955,0.157755,0.44305,0.633903,0.63184,0.336177,0.527693,0.627991,1
0.29128,0.502083,0.158517,0.814596,0.581699,0.221023,0.287455,0.516162,0.63132,1
0.508944,0.588754,0.268948,0.556301,0.543989,0.390343,0.64187,0.743209,0.464752,1
0.967231,0.508447,0.215987,0.501296,0.581699,0.401814,0.495888,0.597999,0.393116,0
0.51223,0.550354,0.21085,0.423524,0.631417,0.446122,0.64763,0.420563,0.143523,0
0.505771,0.467749,0.421668,0.583738,0.651732,0.270448,0.469271,0.725989,0.55978,0
0.49841,0.433141,0.300486,0.48984,0.637274,0.266648,0.39596,0.387188,0.393387,0
0.454083,0.521247,0.237445,0.454203,0.581699,0.605829,0.638433,0.558877,0.713193,0
0.505771,0.666951,0.251351,0.521806,0.479358,0.393203,0.369178,0.397054,0.569908,0
0.595674,0.464884,0.202096,0.518537,0.581699,0.473637,0.587312,0.820313,0.507411,0
0.448354,0.474558,0.414896,0.50072,0.581699,0.461132,0.243984,0.568119,0.333577,0
0.781962,0.360732,0.44906,0.542242,0.581699,0.341728,0.580326,0.685977,0.314297,0
0.705128,0.242805,0.453024,0.650354,0.599511,0.540287,0.24206,0.519976,0.416386,0
0.308371,0.645948,0.440719,0.511635,0.559422,0.463152,0.57291,0.345994,0.496933,0
0.301967,0.558651,0.210182,0.515112,0.698358,0.386769,0.790164,0.614394,0.572817,0
0.29572,0.747819,0.66177,0.579455,0.387662,0.438967,0.648532,0.493112,0.324746,0
0.382143,0.530941,0.516773,0.61572,0.563114,0.437157,0.366904,0.446841,0.45164,0
0.541287,0.570559,0.322194,0.457194,0.581699,0.587556,0.451181,0.437278,0.388319,0
0.550724,0.460364,0.503993,0.615283,0.400135,0.447716,0.272798,0.41219,0.462974,0
0.595053,0.549758,0.469556,0.554537,0.497951,0.433222,0.479434,0.672469,0.18114,0
0.465069,0.513076,0.324446,0.485925,0.681718,0.326043,0.483049,0.81542,0.475047,0
0.505771,0.575295,0.137043,0.467941,0.637812,0.731058,0.724864,0.447781,0.506475,0
0.495308,0.655668,0.222977,0.445675,0.433349,0.387738,0.598157,0.53578,0.522022,0
0.615618,0.762314,0.185111,0.473419,0.581699,0.283735,0.50311,0.60805,0.508856,0
0.604355,0.686998,0.210781,0.401274,0.581699,0.640766,0.557144,0.596401,0.61987,0
0.286018,0.591435,0.533622,0.510093,0.581699,0.302445,0.47142,0.468726,0.566449,0
0.268721,0.538979,0.734392,0.655466,0.554344,0.545139,0.247594,0.684876,0.66857,0
0.271081,0.475171,0.44098,0.479767,0.581699,0.321772,0.38889,0.592815,0.328055,0
0.404338,0.672192,0.265442,0.462695,0.469307,0.357194,0.638925,0.618558,0.674265,0
0.671153,0.643189,0.418749,0.551021,0.490341,0.563618,0.562334,0.472457,0.596721,0
0.953563,0.382109,0.2979,0.498315,0.58479,0.47103,0.574428,0.690769,0.204401,0
0.505771,0.497861,0.33719,0.478352,0.550181,0.374746,0.622367,0.531427,0.4398,0
0.558422,0.629898,0.220358,0.471369,0.450809,0.488085,0.402484,0.535766,0.599862,0
0.505771,0.629183,0.117218,0.36286,0.581699,0.242841,0.418175,0.323497,0.53259,0
0.10227,0.655436,0.207143,0.458925,0.541811,0.548905,0.376756,0.490038,0.661456,0
0.49786,0.491333,0.520746,0.552702,0.704348,0.25235,0.465565,0.562336,0.534182,0
0.775133,0.432765,0.206321,0.575337,0.581699,0.713715,0.520555,0.532673,0.547365,0
0.470572,0.71642,0.38712,0.503244,0.411148,0.261308,0.270139,0.378468,0.523058,0
0.643168,0.634976,0.266375,0.451827,0.581699,0.40169,0.53015,0.539718,0.392871,0
0.505771,0.414038,0.184899,0.498511,0.581699,0.37134,0.349406,0.634101,0.552908,0
0.309163,0.524986,0.49702,0.553729,0.563313,0.633429,0.344327,0.582729,0.427023,0
0.529845,0.710477,0,0.33242,0.588295,0.314095,0.698141,0.700253,0.382078,0
0.232976,0.5206,0.466932,0.593154,0.581699,0.424456,0.42807,0.46533,0.535199,0
0.505771,0.697612,0.196982,0.47403,0.369633,0.525473,0.477757,0.633313,0.622455,0
0.566345,0.666759,0.281151,0.464955,0.581699,0.36289,0.447499,0.769216,0.371256,0
0.569666,0.429038,0.276844,0.520563,0.722286,0.318907,0.630625,0.610851,0.350941,0
0.678868,0.53566,0.322222,0.557001,0.487683,0.351467,0.465876,0.629301,0.546992,0
0.36848,0.259934,0.551196,0.56518,0.791059,0.251319,0.56567,0.588071,0.50002,0
0.280248,0.653895,0.392068,0.52046,0.581699,0.19394,0.658787,0.495268,0.592358,0
0.505771,0.529686,0.222171,0.531797,0.653229,0.522554,0.30866,0.532673,0.420352,0
0.417841,0.661988,0.445182,0.48712,0.420512,0.725563,0.486918,0.542799,0.414788,0
0.420776,0.495567,0.568071,0.55181,0.61015,0.174974,0.48003,0.501888,0.552236,0
0.425963,0.636941,0.395931,0.459436,0.502647,0.180138,0.497646,0.319683,0.43067,0
0.436197,0.594948,0.642124,0.623475,0.624311,0.363914,0.409845,0.686506,0.467946,0
0.492781,0.588354,0.247943,0.511383,0.467465,0.37654,0.516158,0.534304,0.423229,0
0.577987,0.556931,0.429377,0.498918,0.581699,0.438406,0.444393,0.259034,0.552095,0
0.543713,0.519532,0.144765,0.38139,0.569782,0.69241,0.575072,0.524048,0.953819,0
0.634784,0.482901,0.422641,0.661993,0.563086,0.344797,0.590753,0.387289,0.620381,0
0.466578,0.42063,0.130034,0.492332,0.777878,0.733659,0.601384,0.440399,0.595448,0
0.55957,0.564896,0.178197,0.461409,0.755306,0.274101,0.539333,0.382873,0.530247,0
0.825941,0.462512,0.312587,0.48091,0.577923,0.323207,0.587338,0.305797,0.69148,0
0.484491,0.539553,0.41122,0.536075,0.521053,0.443485,0.380018,0.613409,0.759802,0
0.592055,0.594942,0.179179,0.47229,0.658588,0.600856,0.494198,0.505119,0.402822,0
0.069684,0.630313,0.506092,0.568578,0.581421,0.450512,0.725899,0.532673,0.204953,0
0.537784,0.645318,0.12821,0.466025,0.511976,0.345987,0.565592,0.515388,0.414901,0
0.697476,0.260189,0.631471,0.703141,0.713661,0.578549,0.489185,0.474235,0.297707,0
0.727976,0.595356,0.218518,0.483168,0.477371,0.501676,0.582826,0.58398,0.369337,0
0.208941,0.772696,0.638886,0.572849,0.495417,0.387788,0.349012,0.55573,0.421363,0
0.505771,0.555801,0.479308,0.596031,0.620802,0.515368,0.680079,0.532673,0.298345,0
0.475557,0.573507,0.304125,0.499587,0.665845,0.654734,0.222489,0.537041,0.45735,0
0.500374,0.625662,0.431428,0.547869,0.581153,0.34644,0.424701,0.796899,0.404588,0
0.505771,0.473893,0.570113,0.579885,0.647906,0.350019,0.588176,0.570924,0.437064,0
0.444846,0.492858,0.634665,0.61803,0.581699,0.612296,0.522906,0.372423,0.595495,0
0.456626,0.613886,0.312,0.434787,0.438046,0.308976,0.489757,0.331397,0.561832,0
0.434859,0.416575,0.381672,0.575075,0.692653,0.36108,0.439219,0.604631,0.514858,0
0.282956,0.455572,0.389245,0.59911,0.74426,0.460447,0.679896,0.479438,0.49971,0
0.305369,0.660197,0.423236,0.483225,0.434328,0.572359,0.533839,0.534765,0.431623,0
0.521565,0.642151,0.38164,0.563761,0.429308,0.534834,0.242332,0.553311,0.374494,0
0.778106,0.472637,0.416732,0.572041,0.520975,0.352737,0.585138,0.341359,0.413116,0
0.485578,0.546568,0.583895,0.524447,0.581699,0.505387,0.332898,0.468399,0.401139,0
0.821193,0.538853,0.227189,0.538804,0.519742,0.307836,0.656005,0.662102,0.318066,0
0.414874,0.53713,0.702548,0.549262,0.434391,0.252418,0.492223,0.410157,0.636994,0
0.505771,0.493627,0.330677,0.546475,0.579834,0.305819,0.688852,0.537732,0.64977,0
0.405666,0.488637,0.288775,0.562551,0.581699,0.638989,0.498826,0.655657,0.348283,0
0.55595,0.541851,0.401739,0.485049,0.573918,0.33449,0.378015,0.110376,0.67983,0
0.451176,0.506355,0.53083,0.610347,0.526114,0.492879,0.461434,0.482965,0.652814,0
0.61467,0.61522,0.371883,0.552482,0.581699,0.145518,0.555285,0.371271,0.418855,0
0.505771,0.419115,0.426235,0.639661,0.684209,0.388411,0.390354,0.532673,0.706304,0
0.504111,0.47242,0.210294,0.544842,0.677011,0.37117,0.542388,0.430821,0.574098,0
0.346436,0.505072,0.533399,0.559238,0.468022,0.369351,0.323018,0.684882,0.460462,0
0.505771,0.562883,0.513665,0.47848,0.581699,0.348846,0.431435,0.53805,0.628686,0
0.32578,0.429251,0.371361,0.597748,0.635722,0.248837,0.435408,0.637492,0.505506,0
0.652202,0.58874,0.185904,0.488664,0.560731,0.573879,0.347665,0.541856,0.307078,0
0.505771,0.499434,0.259238,0.476903,0.643601,0.358524,0.345427,0.302636,0.262978,0
0.302397,0.535173,0.358991,0.529535,0.70689,0.304854,0.485027,0.497139,0.39056,0
0.39793,0.516142,0.423883,0.663856,0.661464,0.441661,0.535131,0.71384,0.469145,0
0.505771,0.391326,0.370909,0.623391,0.797051,0.425447,0.53997,0.682728,0.63825,0
0.609082,0.616495,0.050769,0.416284,0.59265,0.759151,0.487615,0.66405,0.226777,0
0.32649,0.535148,0.721424,0.601053,0.581699,0.488399,0.603149,0.634991,0.573679,0
0.635981,0.532421,0.213419,0.408211,0.552294,0.237586,0.572037,0.492372,0.551176,0
0.675709,0.636445,0.231983,0.504025,0.467989,0.440076,0.263186,0.544927,0.35411,0
0.431449,0.334935,0.330868,0.505595,0.649356,0.536481,0.524224,0.426255,0.815198,0
0.505771,0.448815,0.329873,0.512275,0.676616,0.302149,0.544183,0.507212,0.478149,0
0.333107,0.448036,0.675328,0.655481,0.663054,0.343905,0.539236,0.485801,0.433408,0
0.409024,0.523484,0.584149,0.603887,0.709525,0.221215,0.397269,0.482341,0.465549,0
0.780936,0.417106,0.304167,0.527065,0.581699,0.720881,0.489549,0.486383,0.462278,0
0.305823,0.512716,0.361367,0.517078,0.557227,0.21895,0.539267,0.664091,0.55231,0
0.567749,0.544675,0.382247,0.528098,0.581699,0.372967,0.485697,0.634715,0.461547,0
0.487546,0.469397,0.205529,0.425865,0.752203,0.464809,0.521891,0.839618,0.256094,0
0.520384,0.441497,0.280021,0.708625,0.753038,0.335234,0.500403,0.649494,0.424368,0
0.427496,0.483672,0.540562,0.605442,0.669562,0.369824,0.70007,0.400802,0.385456,0
0.383499,0.737159,0.256997,0.4747,0.42085,0.268136,0.516642,0.351304,0.432574,0
0.286899,0.755135,0.464506,0.547052,0.459308,0.456234,0.27225,0.572797,0.561001,0
0.505771,0.749726,0.158246,0.28623,0.581699,0.320573,0.349297,0.475534,0.325306,0
0.551357,0.538918,0.223595,0.515346,0.61544,0.422691,0.560796,0.718799,0.271284,0
0.427409,0.631594,0.297472,0.493336,0.533417,0.45826,0.648903,0.42936,0.453655,0
0.552329,0.433654,0.297585,0.533922,0.581699,0.47547,0.418061,0.620582,0.454716,0
0.631991,0.51967,0.186912,0.494043,0.714689,0.358446,0.540962,0.689228,0.509255,0
0.540131,0.445218,0.376531,0.566053,0.567288,0.377898,0.534112,0.535516,0.488211,0
0.625611,0.461735,0.41447,0.604169,0.581699,0.333004,0.488264,0.37682,0.566152,0
0.505771,0.511489,0.467451,0.601828,0.718714,0.420997,0.320908,0.507029,0.336241,0
0.27378,0.621316,0.381145,0.479327,0.634905,0.419159,0.654159,0.471887,0.627465,0
0.266438,0.663303,0.27209,0.52017,0.552567,0.481626,0.31196,0.376089,0.660433,0
0.414398,0.560265,0.246394,0.509483,0.567941,0.174171,0.674808,0.443442,0.56256,0
0.262745,0.508048,0.374058,0.531753,0.581699,0.295627,0.304217,0.541271,0.572908,0
0.367399,0.482243,0.532287,0.5978,0.566534,0.363304,0.44993,0.532673,0.311243,0
0.473447,0.549286,0.255974,0.560932,0.605106,0.448423,0.490641,0.309162,0.569948,0
0.505771,0.539194,0.299988,0.539604,0.547719,0.649453,0.515892,0.651805,0.62637,0
0.221577,0.547918,0.736014,0.584708,0.555759,0.429709,0.510733,0.436763,0.529037,0
0.321256,0.531406,0.450651,0.51306,0.572196,0.654968,0.782315,0.653306,0.664727,0
0.398866,0.567026,0.487291,0.53709,0.516035,0.323636,0.45912,0.528494,0.454289,0
0.505771,0.571775,0.257995,0.531038,0.762632,0.48581,0.668119,0.562394,0.644387,0
0.737948,0.431742,0.254553,0.47314,0.659477,0.340326,0.446143,0.416344,0.231318,0
0.6522,0.553518,0.458946,0.559337,0.581699,0.476324,0.408449,0.51468,0.297922,0
0.329918,0.55093,0.440903,0.537502,0.687602,0.228724,0.45367,0.532673,0.543036,0
0.495089,0.580927,0.394681,0.537769,0.52501,0.516874,0.547705,0.602813,0.651911,0
0.400154,0.787624,0.484997,0.521529,0.581699,0.609803,0.529892,0.236188,0.49481,0
0.53718,0.657004,0.358582,0.557479,0.581699,0.635931,0.546384,0.731831,0.525197,0
0.398748,0.45304,0.38078,0.599555,0.668929,0.473188,0.546822,0.765099,0.49123,0
0.570911,0.530219,0.234614,0.537527,0.577986,0.502081,0.332454,0.539042,0.494027,0
0.586454,0.590478,0.366109,0.564852,0.581699,0.314991,0.477019,0.564895,0.428562,0
0.707281,0.577871,0.21114,0.432629,0.581699,0.428517,0.46444,0.605789,0.525042,0
0.505771,0.521693,0.225658,0.523284,0.659474,0.381834,0.331236,0.28269,0.431526,0
0.671848,0.369529,0.440991,0.588283,0.581699,0.380028,0.581023,0.464252,0.488511,0
0.68485,0.5383,0.181113,0.463051,0.674455,0.248857,0.416408,0.297051,0.608228,0
0.330943,0.585712,0.475915,0.451944,0.497206,0.480418,0.330159,0.895469,0.624288,0
0.492937,0.388267,0.341219,0.593088,0.701647,0.469992,0.476755,0.572629,0.409623,0
0.556826,0.321586,0.429571,0.563861,0.845097,0.506995,0.472987,0.411751,0.412035,0
0.505771,0.609375,0.321625,0.512769,0.483158,0.332248,0.328213,0.685768,0.594165,0
0,0.607251,0.806742,0.590649,0.581699,0.70291,0.210817,0.624482,0.65775,0
0.599876,0.471233,0.29032,0.550992,0.581699,0.554126,0.31231,0.446023,0.2227,0
0.446796,0.385243,0.39397,0.615232,0.677056,0.198578,0.394776,0.734474,0.320757,0
0.821204,0.503073,0.195914,0.603912,0.557933,0.13823,0.286363,0.546283,0.672186,0
0.505771,0.556002,0.661025,0.501603,0.383138,0.177821,0.487177,0.47169,0.483729,0
0.667667,0.559323,0.220481,0.546516,0.548375,0.578749,0.392135,0.349573,0.409369,0
0.830081,0.566931,0.242689,0.584299,0.581699,0.464383,0.744536,0.495398,0.382316,0
0.738405,0.420194,0.352991,0.590804,0.645341,0.664014,0.456564,0.449896,0.683136,0
0.505771,0.539079,0.354619,0.499278,0.655345,0.385143,0.46051,0.623613,0.473618,0
0.377713,0.716711,0.450081,0.530964,0.31203,0.494162,0.431118,0.445428,0.351869,0
0.544109,0.479391,0.492352,0.516682,0.569332,0.304169,0.429148,0.531272,0.425093,0
0.510652,0.562768,0.374961,0.447422,0.491442,0.210717,0.590904,0.337126,0.441867,0
0.617956,0.388531,0.255809,0.482112,0.824406,0.460533,0.477269,0.395719,0.343432,0
0.377857,0.46177,0.465897,0.646167,0.534091,0.5232,0.442464,0.419739,0.393708,0
0.383542,0.447613,0.441313,0.603827,0.701802,0.385321,0.455248,0.657155,0.360651,0
0.624805,0.548729,0.493009,0.545792,0.581699,0.266072,0.446976,0.762523,0.626717,0
0.574314,0.555713,0.208159,0.496623,0.647302,0.371655,0.341012,0.347941,0.296426,0
0.610745,0.577059,0.166356,0.479844,0.559967,0.290877,0.45201,0.337107,0.653029,0
0.552809,0.581563,0.494061,0.584107,0.455681,0.161252,0.648022,0.418159,0.415161,0
0.507471,0.559302,0.29181,0.635783,0.660821,0.292466,0.244539,0.394645,0.626405,0
0.499158,0.351035,0.542417,0.50254,0.581699,0.397866,0.600779,0.433011,0.085022,0
0.562127,0.495604,0.30026,0.552566,0.581699,0.320173,0.5893,0,0.523648,0
0.632835,0.533655,0.326905,0.482791,0.577648,0.515421,0.601133,0.423253,0.590912,0
0.528396,0.498415,0.319773,0.631703,0.733431,0.431804,0.419289,0.499748,0.472138,0
0.369635,0.573419,0.206064,0.528188,0.67234,0.559072,0.703397,0.6197,0.377203,0
0.505771,0.496156,0.525522,0.628511,0.581699,0.474604,0.381912,0.642533,0.678293,0
0.390784,0.523704,0.592958,0.549327,0.551429,0.353911,0.524191,0.422085,0.452641,0
0.479415,0.67022,0.387732,0.490574,0.581699,0.493175,0.448731,0.62836,0.37127,0
0.352365,0.416234,0.450695,0.579703,0.536702,0.545275,0.462136,0.619851,0,0
0.447207,0.510098,0.549833,0.60973,0.603635,0.595982,0.470019,0.375721,0.557267,0
0.54954,0.641879,0.353579,0.523635,0.415509,0.390551,0.408006,0.506376,0.245925,0
0.401629,0.533317,0.259389,0.513189,0.589858,0.396908,0.54271,0.615706,0.480801,0
0.441063,0.528111,0.372463,0.606365,0.600099,0.202198,0.431998,0.62945,0.410909,0
0.359958,0.533103,0.312212,0.535637,0.597198,0.584626,0.326769,0.489944,0.317065,0
0.554067,0.624408,0.265279,0.51652,0.581699,0.316976,0.415888,0.660082,0.457617,0
0.700714,0.332569,0.270883,0.582386,0.659113,0.448879,0.335293,0.274208,0.772963,0
0.605685,0.556177,0.239398,0.550098,0.581699,0.530917,0.55963,0.42508,0.523968,0
0.633062,0.486896,0.281484,0.530701,0.646199,0.607846,0.506913,0.485702,0.814648,0
0.439696,0.431137,0.491962,0.676626,0.581699,0.297526,0.582558,0.6052,0.42276,0
0.52052,0.624839,0.291671,0.442941,0.421355,0.393595,0.533976,0.429487,0.388403,0
0.647564,0.425267,0.32738,0.566432,0.498728,0.397681,0.30569,0.681354,0.53876,0
0.665323,0.565521,0.373792,0.476326,0.478841,0.334978,0.544168,0.63625,0.310633,0
0.697138,0.490833,0.322207,0.498415,0.581699,0.283485,0.676757,0.689301,0.743382,0
0.570386,0.553889,0.283421,0.502523,0.476009,0.342918,0.309934,0.536684,0.6244,0
0.579168,0.562505,0.433605,0.629599,0.553792,0.326953,0.579965,0.532673,0.624571,0
0.588792,0.606115,0.478442,0.623337,0.581699,0.582322,0.540298,0.724781,0.397186,0
0.734956,0.418395,0.304538,0.513072,0.611275,0.70681,0.638205,0.596743,0.387628,0
0.284931,0.611712,0.654354,0.558546,0.513594,0.38045,0.344319,0.699481,0.559541,0
0.505771,0.587974,0.733287,0.668965,0.581699,0.293607,0.515452,0.532673,0.450459,0
0.608546,0.520737,0.234098,0.489291,0.581699,0.55442,0.349295,0.457916,0.373842,0
0.505771,0.442941,0.323182,0.476374,0.581699,0.294446,0.349905,0.332347,0.459823,0
0.505771,0.638193,0.339396,0.579915,0.600419,0.264059,0.608635,0.489027,0.60461,0
0.321097,0.677422,0.225919,0.468781,0.475283,0.351353,0.580596,0.472703,0.66419,0
0.505771,0.528341,0.286607,0.448998,0.581699,0.632378,0.326344,0.532673,0.459192,0
0.401467,0.651291,0.452025,0.482933,0.511967,0.406705,0.564479,0.630375,0.376153,0
0.610928,0.551948,0.16635,0.488136,0.581699,0.235677,0.798558,0.361147,0.313608,0
0.505771,0.612299,0.337664,0.545939,0.495692,0.154468,0.500107,0.843281,0.455728,0
0.729283,0.366159,0.297049,0.552326,0.743171,0.400596,0.494392,0.7175,0.503422,0
0.505771,0.572384,0.353138,0.495112,0.57573,0.27469,0.512132,0.453268,0.207153,0
0.470586,0.479764,0.573712,0.555252,0.581699,0.604984,0.534457,0.655234,0.476887,0
0.611313,0.54937,0.134871,0.347919,0.546553,0.475795,0.465579,0.597006,0.471966,0
0.601922,0.407187,0.316151,0.572397,0.611155,0.365837,0.595672,0.429114,0.528363,0
0.514824,0.462013,0.254087,0.516794,0.581699,0.654204,0.458665,0.485091,0.537945,0
0.730549,0.647415,0.151465,0.43426,0.525486,0.334084,0.501314,0.490987,0.630805,0
0.81361,0.355142,0.260306,0.490166,0.581699,0.650519,0.378973,0.559769,0.15643,0
0.505771,0.551162,0.086291,0.363745,0.602471,0.361567,0.327401,0.405717,0.333979,0
0.470003,0.628032,0.44901,0.457618,0.581699,0.512616,0.355181,0.428113,0.625155,0
0.772702,0.341165,0.388614,0.5957,0.739688,0.315022,0.486924,0.457777,0.404772,0
0.363834,0.739527,0.491329,0.498382,0.392085,0.157639,0.485917,0.568224,0.586608,0
0.37602,0.344958,0.414327,0.489142,0.816016,0.458637,0.202734,0.585272,0.690157,0
0.569378,0.375785,0.484463,0.572223,0.78638,0.341742,0.658342,0.62811,0.187018,0
0.596454,0.697822,0.276767,0.450642,0.408614,0.198287,0.321972,0.503925,0.388963,0
0.505771,0.497595,0.360698,0.533495,0.748407,0.398712,0.383739,0.512455,0.35957,0
0.288004,0.553647,0.236422,0.479897,0.581699,0.590582,0.551754,0.621083,0.636082,0
0.152038,0.526908,0.403642,0.579708,0.723005,0.510731,0.463084,0.451151,0.45228,0
0.703004,0.618316,0.106134,0.444376,0.579704,0.438655,0.389484,0.365758,0.516014,0
0.547473,0.374458,0.55162,0.657088,0.788216,0.445655,0.498733,0.532673,0.385216,0
0.505771,0.676701,0.441274,0.543675,0.491005,0.540837,0.529608,0.468812,0.330562,0
0.518594,0.532535,0.128166,0.494875,0.754354,0.228842,0.528928,0.521539,0.53551,0
0.681277,0.555422,0.32383,0.526551,0.496887,0.269421,0.55311,0.572529,0.297704,0
0.141813,0.613177,0.373006,0.50233,0.610783,0.27908,0.356254,0.632761,0.467592,0
0.517785,0.495622,0.538574,0.534965,0.549286,0.286562,0.49671,0.552559,0.530531,0
0.497729,0.474389,0.651399,0.671522,0.591042,0.371059,0.461432,0.605521,0.412676,0
0.439325,0.599899,0.241302,0.406453,0.541132,0.171307,0.408065,0.602706,0.635382,0
0.450054,0.478871,0.416168,0.671588,0.603621,0.485,0.454519,0.532673,0.805088,0
0.494343,0.619048,0.216011,0.415486,0.581699,0.211466,0.339256,0.496469,0.655272,0
0.462992,0.480564,0.564436,0.640821,0.593733,0.564673,0.54442,0.480414,0.671651,0
0.505771,0.585797,0.264488,0.432194,0.51696,0.320771,0.597761,0.864568,0.568154,0
0.522114,0.529724,0.312319,0.572373,0.504744,0.428564,0.40783,0.899364,0.491246,0
0.426234,0.506555,0.501191,0.542396,0.59672,0.249151,0.400454,0.580354,0.465975,0
0.616519,0.424166,0.239051,0.542173,0.630489,0.459247,0.561588,0.465998,0.414245,0
0.655187,0.428941,0.180575,0.490556,0.691857,0.41784,0.427328,0.586037,0.422839,0
0.505771,0.396606,0.37374,0.54151,0.585052,0.344089,0.653147,0.655786,0.778011,0
0.238402,0.612368,0.689418,0.608897,0.581699,0.298641,0.453244,0.422052,0.349819,0
0.817839,0.504986,0.197589,0.525525,0.547769,0.563916,0.539554,0.619933,0.702761,0
0.448834,0.572902,0.321551,0.526524,0.440888,0.507853,0.606405,0.516174,0.573033,0
0.505771,0.525862,0.412755,0.616789,0.581699,0.497326,0.553919,0.467477,0.395859,0
0.625841,0.598476,0.227366,0.472308,0.581699,0.537048,0.398536,0.482704,0.609482,0
0.472624,0.535616,0.557526,0.569913,0.581699,0.412657,0.430366,0.382989,0.410735,0
0.552469,0.665553,0.352273,0.513236,0.581699,0.373573,0.491707,0.746048,0.448375,0
0.49797,0.502281,0.453797,0.537183,0.627059,0.406715,0.677506,0.287526,0.335857,0
0.33637,0.47774,0.360726,0.502722,0.790891,0.331867,0.612521,0.696002,0.455679,0
0.373572,0.468936,0.453992,0.5672,0.809344,0.452684,0.468338,0.584928,0.301685,0
0.376728,0.652569,0.28379,0.467709,0.652187,0.538508,0.344797,0.532673,0.551035,1
0.602389,0.643559,0.205439,0.456164,0.563966,0.402837,0.582392,0.585576,0.448995,1
0.489133,0.680144,0.396269,0.410508,0.584816,0.272951,0.280279,0.62111,0.656305,1
0.518825,0.409918,0.259559,0.605794,0.566562,0.519414,0.406699,0.347668,0.472779,1
0.480948,0.521864,0.096417,0.578299,0.581699,0.42525,0.713078,0.792051,0.437832,1
0.505771,0.765402,0.413379,0.357743,0.602333,0.427227,0.643435,0.540821,0.423889,1
0.505771,0.672893,0.138051,0.433189,0.581699,0.383021,0.251829,0.559669,0.368638,1
0.555548,0.675861,0.270238,0.451765,0.552617,0.592456,0.5975,0.483571,0.611332,1
0.435981,0.496557,0.289898,0.541959,0.581699,0.268363,0.209018,0.472673,0.365485,1
0.476127,0.392749,0.497307,0.612176,0.591351,0.427043,0.494312,0.641256,0.652969,1
0.505771,0.611221,0.161737,0.490825,0.581699,0.3442,0.421104,0.665634,0.436339,1
0.354275,0.61091,0.157076,0.516809,0.711599,0.605037,0.464622,0.419033,0.379097,1
0.456993,0.73465,0.356878,0.355438,0.700207,0.267175,0.457868,0.781201,0.474294,1
0.581453,0.385634,0.828699,0.586419,0.503419,0.423133,0.464445,0.521966,0.550726,1
0.48933,0.672849,0.246561,0.453277,0.581699,0.449173,0.611057,0.655625,0.216267,1
0.479627,0.50229,0.562134,0.485547,0.657637,0.214186,0.307528,0.401389,0.611619,1
0.309794,0.580104,0.558804,0.505452,0.696169,0.609566,0.399312,0.357063,0.558071,1
0.602378,0.412646,0.255857,0.631841,0.486091,0.522003,0.50206,0.573904,0.412468,1
0.519587,0.544916,0.441293,0.582845,0.49953,0.207282,0.47554,0.534397,0.616422,1
0.469942,0.506198,0.268923,0.477724,0.710281,0.391343,0.490269,0.498242,0.446882,1
0.505771,0.700708,0.323206,0.356579,0.71232,0.254996,0.424745,0.668871,0.378734,1
0.61793,0.512455,0.211586,0.50745,0.585872,0.381575,0.325263,0.350597,0.414876,1
0.596972,0.419549,0.569204,0.574947,0.534901,0.389972,0.232639,0.542423,0.551379,1
0.505771,0.708746,0.475766,0.430672,0.60037,0.492484,0.123626,0.532673,0.391867,1
0.475624,0.613484,0.408031,0.503602,0.572443,0.767611,0.647322,0.661243,0.368876,1
0.75027,0.284895,0.628579,0.65429,0.581699,0.86203,0.287901,0.413427,0.741247,1
0.452313,0.505659,0.37356,0.605088,0.562396,0.091673,0.285113,0.488407,0.701267,1
0.505771,0.606335,0.356574,0.45774,0.469395,0.264032,0.623354,0.367577,0.527233,1
0.480745,0.495057,0.146747,0.599074,0.613787,0.243389,0.378039,0.451879,0.474937,1
0.592699,0.493965,0.328299,0.528909,0.54852,0.199648,0.433073,0.498873,0.527363,1
0.447091,0.300851,0.154561,0.777325,0.543588,0.38098,0.331295,0.346272,0.469303,1
0.576866,0.309179,0.172319,0.717125,0.528279,0.521589,0.478385,0.583313,0.53722,1
0.40936,0.639384,0.016927,0.480996,0.714466,0.767359,0.47789,0.497198,0.420837,1
0.468811,0.703155,0.91944,0.392451,0.581699,0.409775,0.362143,0.567082,0.726593,1
0.37884,0.665913,0.104336,0.449946,0.73801,0.497232,0.472462,0.624118,0.486769,1
0.546277,0.411119,0.470882,0.53741,0.581699,0.449966,0.420785,0.538381,0.307936,1
0.505771,0.332754,0.549433,0.727086,0.41568,0.555984,0.439252,0.564897,0.610464,1
0.567961,0.500521,0.095029,0.529617,0.613003,0.179054,0.640015,0.690089,0.460745,1
0.630867,0.46928,0.194563,0.5576,0.546139,0.37405,0.393929,0.52838,0.465969,1
0.589345,0.496761,0.349647,0.533443,0.50046,0.404756,0.444113,0.576505,0.218323,1
0.418612,0.701708,0.295553,0.445744,0.630768,0.542777,0.26043,0.355971,0.534551,1
0.584436,0.505051,0.317233,0.576371,0.581699,0.330217,0.357149,0.444224,0.596566,1
0.563541,0.384987,0.671355,0.634492,0.469448,0.30252,0.348375,0.540449,0.336048,1
0.622392,0.443054,0.386132,0.611404,0.581699,0.520232,0.472065,0.512788,0.27835,1
0.441852,0.684107,0.014416,0.453075,0.696233,0.445481,0.340759,0.803468,0.499199,1
0.648551,0.633354,0.877003,0.512166,0.355199,0.352207,0.402486,0.818398,0.586448,1
0.598537,0.42343,0.395496,0.614248,0.581699,0.434994,0.657087,0.505973,0.43483,1
0.658711,0.377315,0.429868,0.606277,0.469257,0.629732,0.450259,0.315056,0.537767,1
0.669335,0.400038,0.242756,0.580107,0.532317,0.425685,0.515172,0.871931,0.554131,1
0.534827,0.3712,0.468201,0.642581,0.581699,0.61151,0.281093,0.464145,0.066426,1
0.430596,0.646529,0.194144,0.451998,0.673128,0.562426,0.515398,0.589497,0.319925,1
0.448808,0.656866,0.185214,0.467336,0.581699,0.407969,0.363206,0.710746,0.511248,1
0.404746,0.343557,0.395079,0.754407,0.543317,0.577888,0.820088,0.618946,0.451281,1
0.49895,0.624445,0.265162,0.476987,0.596692,0.544574,0.521243,0.566782,0.308527,1
0.519526,0.462774,0.22798,0.586072,0.592689,0.246576,0.609496,0.466029,0.51927,1
0.532119,0.528162,0.524255,0.448892,0.591241,0.684299,0.607674,0.459698,0.552166,1
0.544151,0.56325,0.726014,0.427727,0.593897,0.485425,0.427266,0.59113,0.438589,1
0.47844,0.547184,0.564062,0.462748,0.656854,0.436211,0.382248,0.532673,0.436411,1
0.50195,0.502034,0.506199,0.569358,0.563081,0.379851,0.661359,0.648664,0.367303,1
0.615069,0.281933,0.521438,0.743086,0.383639,0.281051,0.411777,0.431701,0.598298,1
0.530256,0.482502,0.560386,0.593241,0.49652,0.434331,0.209422,0.53514,0.362147,1
0.389763,0.624203,0.338995,0.506832,0.642225,0.228266,0.453229,0.463359,0.444219,1
0.686636,0.17221,0.267257,0.688145,0.517842,0.61941,0.387434,0.541034,0.485235,1
0.589066,0.259696,0.121936,0.686671,0.581699,0.695563,0.41384,0.584655,0.500401,1
0.47437,0.524081,0.162541,0.494957,0.714039,0.419568,0.384799,0.522804,0.322311,1
0.474719,0.543324,0.271606,0.504261,0.581699,0.566245,0.556029,0.364447,0.303268,1
0.511748,0.600563,0.532474,0.464982,0.581699,0.541129,0.401677,0.466605,0.670865,1
0.591791,0.377747,0.231204,0.680867,0.494508,0.246631,0.438799,0.919156,0.534063,1
0.43643,0.679631,0.268324,0.440903,0.622262,0.448377,0.301131,0.532673,0.258609,1
0.594047,0.230226,0.402152,0.715269,0.581699,0.522836,0.4625,0.625631,0.235545,1
0.505771,0.498969,0.238974,0.55939,0.677005,0.444374,0.675859,0.604091,0.089313,1
0.643191,0.458147,0.459564,0.635858,0.581699,0.612105,0.407617,0.300391,0.439594,1
0.491894,0.594948,0.569685,0.447405,0.581699,0.644413,0.239277,0.218439,0.406458,1
0.66383,0.528233,0.818399,0.465744,0.581699,0.32168,0.460763,0.794141,0.418204,1
0.498942,0.311943,0.355032,0.643887,0.602902,0.620421,0.535505,0.738028,0.528682,1
0.363869,0.637433,0.371665,0.518624,0.628074,0.516108,0.41512,0.627427,0.616551,1
0.439288,0.511372,0.132758,0.578686,0.652192,0.468429,0.422234,0.423639,0.377093,1
0.442121,0.642024,0.244782,0.432656,0.67466,0.818947,0.308717,0.576357,0.298236,1
0.535571,0.501931,0.502517,0.565744,0.581699,0.515693,0.495183,0.585666,0.810927,1
0.49752,0.418102,0.393902,0.687104,0.507794,0.540923,0.510041,0.827164,0.476332,1
0.38658,0.816428,0.041282,0.424737,0.581699,0.290842,0.502212,0.534824,0.799839,1
0.535935,0.505206,0.520131,0.570628,0.53113,0.510699,0.377361,0.345139,0.539897,1
0.505771,0.586589,0.43854,0.449452,0.627958,0.395949,0.338963,0.657298,0.480833,1
0.612932,0.385492,0.322619,0.572187,0.522355,0.593371,0.482053,0.595397,0.270967,1
0.395004,0.582412,0.633725,0.484629,0.656394,0.430492,0.636516,0.490638,0.354977,1
0.624568,0.545236,0.665329,0.470987,0.516083,0.253156,0.394759,0.53288,0.504627,1
0.646599,0.2633,0.359282,0.70578,0.443807,0.333634,0.472737,0.514306,0.531238,1
0.576947,0.282455,0.387651,0.659191,0.536014,0.379193,0.501133,0.502429,0.535048,1
0.477293,0.656063,0.121241,0.437992,0.66624,0.127494,0.419174,0.519592,0.378111,1
0.337951,0.665622,0.249506,0.490231,0.581699,0.355547,0.552526,0.513542,0.757779,1
0.660101,0.291945,0.644364,0.666052,0.434609,0.534844,0.281015,0.525536,0.618047,1
0.402022,0.525618,0.370008,0.58025,0.608014,0.45041,0.498081,0.401518,0.493788,1
0.346986,0.63465,0.251983,0.590903,0.543687,0.413249,0.51075,0.677344,0.475812,1
0.602177,0.537866,0.573555,0.497185,0.52759,0.17682,0.385792,0.37116,0.34107,1
0.486972,0.623542,0.447042,0.46545,0.602043,0.610686,0.662329,0.550298,0.302192,1
0.422411,0.463902,0.192487,0.627537,0.621765,0.348833,0.395817,0.522919,0.486628,1
0.505771,0.761007,0.456901,0.441687,0.588194,0.647653,0.461797,0.548959,0.231431,1
0.392877,0.784394,0.321646,0.344682,0.675915,0.444833,0.404643,0.411334,0.699099,1
0.400616,0.814134,0.711902,0.297874,0.675698,0.471117,0.545699,0.49092,0.440066,1
0.40066,0.611881,0.238153,0.520531,0.642591,0.25987,0.290403,0.328666,0.335541,1
0.505771,0.184757,0.461277,0.798978,0.476786,0.566148,0.409296,0.686278,0.504649,1
0.418559,0.872508,0.054507,0.291243,0.746234,0.464517,0.159509,0.3928,0.373725,1
0.458408,0.588593,0.519709,0.541012,0.546493,0.188799,0.351305,0.532673,0.5219,1
0.440752,0.529227,0.260815,0.530095,0.581699,0.606115,0.702386,0.603022,0.416375,1
0.288147,0.929554,0.540144,0.31887,0.581699,0.547053,0.429702,0.578237,0.675882,1
0.355676,0.70144,0.391535,0.410319,0.581699,0.378669,0.149089,0.50041,0.376068,1
0.57839,0.62229,0.29211,0.45753,0.581699,0.341144,0.595642,0.48005,0.534899,1
0.505771,0.546939,0.505051,0.553198,0.581699,0.588331,0.364422,0.687079,0.358394,1
0.60491,0.308404,0.340154,0.598777,0.613585,0.313175,0.327316,0.517361,0.269804,1
0.562204,0.59195,0.844099,0.457062,0.581699,0.6152,0.491567,0.678206,0.524034,1
0.548543,0.553665,0.520142,0.569998,0.45945,0.703189,0.561092,0.31339,0.349315,1
0.516185,0.58181,0.357541,0.431367,0.641161,0.301071,0.314217,0.536468,0.545872,1
0.505771,0.565024,0.169478,0.507001,0.581699,0.355182,0.52917,0.58553,0.305523,1
0.618508,0.244387,0.38081,0.656228,0.579572,0.239844,0.550156,0.422907,0.273355,1
0.505771,0.646816,0.457646,0.433724,0.673809,0.414069,0.578806,0.837035,0.454887,1
0.4543,0.549452,0.220358,0.55495,0.594862,0.423429,0.372257,0.462228,0.238844,1
0.748972,0.323351,0.534451,0.629936,0.420196,0.410424,0.639258,0.481417,0.608667,1
0.471673,0.520165,0.314382,0.471517,0.715085,0.480594,0.143088,0.671913,0.533336,1
0.408094,0.539782,0.181191,0.600847,0.620933,0.207466,0.621842,0.357956,0.590117,1
0.340534,0.758157,0.782956,0.424359,0.581699,0.715117,0.549485,0.358591,0.461973,1
0.686417,0.652667,0.367271,0.394007,0.526424,0.372903,0.566604,0.605229,0.540434,1
0.656175,0.44139,0.438949,0.555028,0.581699,0.554598,0.308331,0.402907,0.378873,1
0.711478,0.444312,0.254722,0.531656,0.490802,0.3627,0.435402,0.574839,0.37522,1
0.435879,0.57516,0.37904,0.603512,0.581699,0.347675,0.509287,0.554695,0.535218,1
0.48519,0.704745,0.144047,0.476228,0.595179,0.314105,0.471359,0.362562,0.088439,1
0.422181,0.702627,0.417049,0.348709,0.72973,0.491605,0.464246,0.48557,0.483552,1
0.437558,0.703726,0.139394,0.421786,0.681823,0.326102,0.560019,0.380683,0.662329,1
0.416865,0.832936,0.28553,0.243146,0.770295,0.481323,0.588211,0.57862,0.432783,1
0.505771,0.51182,0.400459,0.53053,0.581699,0.654121,0.565489,0.448644,0.544846,1
0.761955,0.45685,0.469431,0.525972,0.419379,0.182877,0.59332,0.441412,0.507765,1
0.616307,0.502353,0.512707,0.526612,0.581699,0.281314,0.61488,0.498537,0.690274,1
0.447151,0.595455,0.299751,0.532516,0.601631,0.307094,0.221924,0.662227,0.747517,1
0.772011,0.54831,0.480959,0.425082,0.498883,0.352859,0.486698,0.382587,0.550679,1
0.526565,0.365486,0.68529,0.596063,0.555481,0.63541,0.573429,0.502505,0.54622,1
0.344685,0.67957,0.177674,0.476773,0.685784,0.329986,0.415569,0.369765,0.38062,1
0.347773,0.766243,0.214747,0.354514,0.581699,0.257547,0.580539,0.448072,0.341388,1
0.528246,0.518861,0.365161,0.622951,0.468796,0.40644,0.42534,0.508447,0.669358,1
0.633008,0.305425,0.280967,0.570456,0.599758,0.381176,0.556023,0.428811,0.662712,1
0.429212,0.644372,0.078467,0.555791,0.588355,0.2512,0.340228,0.28884,0.484466,1
0.543373,0.410361,0.638094,0.585081,0.52,0.562506,0.427854,0.497187,0.392329,1
0.477383,0.814966,0.30651,0.390153,0.589594,0.220756,0.68884,0.605736,0.710543,1
0.474172,0.483854,0.155182,0.621838,0.581699,0.384059,0.398526,0.489315,0.702223,1
0.66224,0.485424,0.266312,0.522153,0.511998,0.535463,0.422546,0.532673,0.545274,1
0.505771,0.316675,0.142499,0.679005,0.581699,0.431453,0.247842,0.600634,0.425328,1
0.25928,0.713678,0.402844,0.490495,0.675986,0.455694,0.425398,0.476638,0.624849,1
0.598436,0.548,0.462239,0.479456,0.541081,0.556751,0.505329,0.279755,0.581337,1
0.494545,0.773186,0.401791,0.403066,0.577314,0.745446,0.508928,0.412113,0.484655,1
0.420936,0.69584,0.331751,0.469476,0.602949,0.388442,0.642288,0.511985,0.556003,1
0.585525,0.564663,0.449557,0.479132,0.567811,0.460129,0.461719,0.504358,0.361473,1
0.598065,0.441272,0.234817,0.563286,0.581699,0.49495,0.340346,0.305829,0.653499,1
0.642136,0.60798,0.256139,0.465386,0.522486,0.365346,0.294985,0.440779,0.598193,1
0.478753,0.579955,0.277902,0.575821,0.498565,0.258424,0.537061,0.228299,0.376817,1
0.820786,0.17186,0.605322,0.697547,0.369089,0.451877,0.535355,0.331169,0.55195,1
0.433544,0.505009,0.423895,0.578908,0.615572,0.409897,0.37807,0.484188,0.419685,1
0.333436,0.530482,0.775947,0.533436,0.656047,0.603192,0.448062,0.535037,0.564534,1
0.557775,0.530016,0.279263,0.603473,0.581699,0.368912,0.678284,0.532673,0.254915,1
0.672822,0.465486,0.539101,0.547807,0.581699,0.438152,0.338662,0.560655,0.34957,1
0.366197,0.664407,0.19149,0.46586,0.581699,0.387157,0.343638,0.622659,0.61612,1
0.562477,0.535635,0.280484,0.560259,0.581699,0.255266,0.534114,0.632478,0.162441,1
