@relation water_potability-weka.filters.unsupervised.attribute.ReplaceMissingValues-weka.filters.unsupervised.attribute.NumericToNominal-R10-weka.filters.supervised.instance.SMOTE-C0-K5-P100.0-S1

@attribute ph numeric
@attribute Hardness numeric
@attribute Solids numeric
@attribute Chloramines numeric
@attribute Sulfate numeric
@attribute Conductivity numeric
@attribute Organic_carbon numeric
@attribute Trihalomethanes numeric
@attribute Turbidity numeric
@attribute Potability {0,1}

@data
7.080795,204.890455,20791.318981,7.300212,368.516441,564.308654,10.379783,86.99097,2.963135,0
3.71608,129.422921,18630.057858,6.635246,333.775777,592.885359,15.180013,56.329076,4.500656,0
8.099124,224.236259,19909.541732,9.275884,333.775777,418.606213,16.868637,66.420093,3.055934,0
8.316766,214.373394,22018.417441,8.059332,356.886136,363.266516,18.436524,100.341674,4.628771,0
9.092223,181.101509,17978.986339,6.5466,310.135738,398.410813,11.558279,31.997993,4.075075,0
5.584087,188.313324,28748.687739,7.544869,326.678363,280.467916,8.399735,54.917862,2.559708,0
10.223862,248.071735,28749.716544,7.513408,393.663396,283.651634,13.789695,84.603556,2.672989,0
8.635849,203.361523,13672.091764,4.563009,303.309771,474.607645,12.363817,62.798309,4.401425,0
7.080795,118.988579,14285.583854,7.804174,268.646941,389.375566,12.706049,53.928846,3.595017,0
11.180284,227.231469,25484.508491,9.0772,404.041635,563.885481,17.927806,71.976601,4.370562,0
7.36064,165.520797,32452.614409,7.550701,326.624353,425.383419,15.58681,78.740016,3.662292,0
7.974522,218.6933,18767.656682,8.110385,333.775777,364.09823,14.525746,76.485911,4.011718,0
7.119824,156.704993,18730.813653,3.606036,282.34405,347.715027,15.929536,79.500778,3.445756,0
7.080795,150.174923,27331.361962,6.838223,299.415781,379.761835,19.370807,76.509996,4.413974,0
7.496232,205.344982,28388.004887,5.072558,333.775777,444.645352,13.228311,70.300213,4.777382,0
6.347272,186.732881,41065.234765,9.629596,364.487687,516.743282,11.539781,75.071617,4.376348,0
7.051786,211.049406,30980.600787,10.094796,333.775777,315.141267,20.397022,56.651604,4.268429,0
9.18156,273.813807,24041.32628,6.90499,398.350517,477.974642,13.387341,71.457362,4.503661,0
8.975464,279.357167,19460.398131,6.204321,333.775777,431.44399,12.888759,63.821237,2.436086,0
7.37105,214.49661,25630.320037,4.432669,335.754439,469.914551,12.509164,62.797277,2.560299,0
7.080795,227.435048,22305.567414,10.333918,333.775777,554.820086,16.331693,45.382815,4.133423,0
6.660212,168.283747,30944.363591,5.858769,310.930858,523.671298,17.884235,77.042318,3.749701,0
7.080795,215.977859,17107.224226,5.60706,326.943978,436.256194,14.189062,59.855476,5.459251,0
3.902476,196.903247,21167.500099,6.996312,333.775777,444.478883,16.609033,90.181676,4.528523,0
5.400302,140.739062,17266.593422,10.056852,328.358241,472.874073,11.256381,56.931906,4.824786,0
6.514415,198.767351,21218.702871,8.670937,323.596349,413.29045,14.9,79.847843,5.200885,0
3.445062,207.92626,33424.768678,8.782147,384.007006,441.785876,13.805902,30.284597,4.184397,0
7.080795,145.768181,13224.935639,7.906445,304.001993,298.990666,12.729525,49.536849,4.004871,0
7.080795,266.421018,26362.965012,7.700063,395.38949,364.480107,10.348951,53.008381,3.991564,0
7.080795,148.153061,15193.413474,9.046833,307.011793,563.804743,16.568656,52.676185,6.038185,0
7.181449,209.625601,15196.229987,5.994679,338.336431,342.111286,7.922598,71.537953,5.08886,0
9.82549,190.756618,19677.892466,6.757541,333.775777,452.836235,16.899038,47.081971,2.857472,0
10.433291,117.79123,22326.892046,8.161505,307.707509,412.986834,12.890709,65.733478,5.057311,0
7.414148,235.044534,32555.852537,6.845952,387.175316,411.983364,10.244815,44.489297,3.160624,0
7.080795,232.280452,14787.206265,5.474915,333.775777,383.981723,12.166937,86.080727,5.029167,0
5.115817,191.952743,19620.545329,6.060713,323.836384,441.748379,10.966486,49.238231,3.902089,0
3.64163,183.908722,24752.07246,5.538314,286.059556,456.860096,9.034067,73.594657,3.464353,0
5.618064,304.235912,17281.975168,6.101084,333.775777,399.471566,12.265002,81.588992,2.896547,0
7.080795,143.453731,19942.273218,5.890755,333.775777,427.130671,22.469892,53.124094,2.907564,0
9.267188,198.614395,24683.723566,6.110612,328.077533,396.876949,16.471969,30.383315,4.324005,0
7.080795,233.858996,11703.923907,4.599388,309.03932,349.399633,18.338893,42.677465,3.510004,0
5.33194,194.874065,16658.876503,7.99383,316.675162,335.120398,10.180514,59.572714,4.43482,0
7.145772,238.689929,28780.340432,6.814029,385.97565,332.032706,11.093163,66.138045,5.182591,0
9.920691,202.817483,9973.934059,6.882248,337.350529,333.19247,23.917601,71.833624,4.690707,0
4.758439,183.349454,21568.428779,4.731349,333.775777,403.944168,18.668229,66.9124,4.542801,0
5.702926,216.850474,35606.440177,7.184351,333.775777,504.63826,16.14079,77.536184,4.137739,0
6.953864,209.638293,10575.186281,4.462707,315.606594,391.184315,13.285334,87.390889,3.19571,0
10.682966,173.375498,15758.740621,5.570784,307.352586,323.807913,10.09087,78.472784,3.999775,0
7.080795,129.890572,34415.853146,6.321929,304.535224,470.329169,18.59941,72.403634,4.405586,0
8.757257,200.1914,21536.224687,4.915101,317.8829,404.717799,13.768323,47.930872,3.626135,0
7.080795,168.388431,27492.307307,7.046225,299.820478,383.79502,16.182066,75.729434,3.048057,0
7.809632,100.457615,12013.550629,5.212315,247.200826,605.220124,9.611349,66.084174,2.447444,0
6.652488,145.010172,19871.788448,4.961066,288.052192,545.974994,10.942024,71.727414,3.74209,0
9.147197,211.714142,11920.610836,7.230795,339.751919,527.70891,18.275312,47.634885,3.794532,0
10.560745,181.893366,21783.651033,6.99126,340.390378,456.556402,16.482835,34.252049,3.964686,0
7.484255,260.092173,30616.615149,9.379134,333.775777,404.670777,15.934484,66.621027,4.781188,0
8.520807,238.335112,28779.650011,8.282808,381.649323,481.318803,6.016337,39.091171,3.940605,0
4.999414,190.28705,24323.865903,7.230164,324.893038,405.330482,8.236558,99.427385,4.460684,0
7.080795,157.801194,16963.625012,8.335619,300.044234,360.995994,12.823861,71.717005,4.405386,0
7.080795,155.055727,20557.240432,8.187319,333.775777,290.180983,16.622255,59.622057,4.089908,0
3.906078,233.402835,32144.799934,6.99484,348.359448,269.449051,9.654126,63.743064,3.90288,0
6.391354,213.01783,20965.478309,5.37556,327.650543,369.338121,13.758105,17.915723,3.923749,0
7.080795,229.485694,35729.692709,8.810843,384.943779,296.397547,16.927092,66.396293,3.855602,0
8.692092,195.143739,24656.239679,8.2319,333.775777,398.345418,12.380771,48.440725,4.47796,0
8.08576,127.739674,32653.91036,6.534237,333.775777,416.23963,11.119659,78.27505,4.068689,0
6.203978,212.306618,21815.074148,7.873992,333.775777,362.108004,14.933013,63.87382,5.215689,0
5.058109,238.56938,34873.934523,8.983276,374.433505,669.725086,13.353181,76.5218,5.106656,0
7.080795,103.464759,27420.167425,8.417305,333.775777,485.9745,11.351133,67.869964,4.620793,0
7.080795,211.200526,12830.484134,4.502117,326.961518,333.329848,16.045148,49.898406,3.43974,0
7.261551,179.889788,24964.777703,5.837086,349.269271,501.182781,17.287713,50.993006,3.636364,0
7.160467,183.08931,6743.346066,3.803036,277.599099,428.036344,9.799625,90.035374,3.884891,0
5.704765,116.29933,33223.581529,7.050503,297.078153,504.378681,9.00182,48.147031,4.157533,0
6.217273,130.944464,19460.382819,7.092463,300.131272,556.65371,14.083608,57.897075,5.325833,0
8.679935,242.228667,22984.050951,7.518765,333.775777,352.942588,18.704409,69.907902,3.87347,0
7.080795,219.300914,14859.466424,5.598327,344.442394,425.213575,15.771834,49.352001,4.655917,0
6.897322,211.360167,25650.777643,6.76601,333.775777,383.01431,13.934788,90.52333,5.022784,0
3.514546,158.732076,23029.663614,6.821679,286.522847,307.379142,9.712232,79.850929,3.762615,0
3.7225,163.639747,37962.167991,6.68457,326.694018,467.562973,14.567269,50.577979,3.662838,0
6.455005,176.683973,24468.04839,5.75693,314.799598,477.581346,16.245504,57.729724,2.293431,0
7.316805,217.522862,31903.399812,9.865048,376.937972,425.9134,8.992754,69.50922,3.508373,0
1.844538,233.764343,28689.595778,7.724432,333.775777,410.387264,15.611859,54.299444,5.013463,0
5.519126,168.728583,12531.601921,7.730723,333.775777,443.570372,18.099078,66.396293,3.758996,0
7.408985,204.96175,9566.12227,6.505923,311.452663,504.145994,11.532144,81.106938,3.772421,0
5.97677,258.952732,27267.981861,7.648599,383.657152,514.11892,12.25679,82.469798,2.994671,0
6.395359,133.834229,23827.275015,5.127747,266.908428,573.400295,9.833875,95.026609,4.191218,0
6.209642,195.417721,13116.707712,7.879348,333.775777,417.241656,7.507662,70.547387,3.61252,0
6.762833,232.075177,27159.384345,7.884991,350.445293,465.413775,13.863965,64.812257,4.916579,0
9.918717,199.181251,21470.278305,6.799841,329.178429,430.507707,15.966043,59.292273,3.385508,0
10.15544,300.292476,12652.362979,6.655126,398.647786,487.459131,9.347634,67.919789,5.002467,0
8.721727,206.369682,28608.052076,6.325442,377.404538,506.938353,13.553751,42.381484,2.555027,0
7.080795,197.979783,17153.306163,7.659204,329.280315,575.114694,11.870981,69.109836,4.383922,0
7.080795,199.107886,29721.91163,6.86969,357.303221,420.709591,9.226619,55.294283,3.355165,0
6.099647,237.919927,20416.840996,8.457831,333.775777,291.104837,19.270054,93.138009,3.17279,0
9.026788,253.217074,27965.072146,6.588374,373.553235,588.319651,16.145732,59.124451,2.019042,0
6.953372,203.146547,11609.109055,5.495738,304.283193,551.143337,9.387781,55.958006,3.651866,0
6.140878,197.87609,26687.874483,7.587196,329.231853,548.072761,15.83633,41.263648,5.35946,0
7.077874,220.67054,23873.37821,6.18184,341.987234,333.050786,10.661799,90.29777,4.764508,0
5.488314,135.802362,21485.153195,8.187416,280.603287,441.331137,14.860263,88.287346,5.066786,0
7.205559,120.327615,24627.86756,6.202469,289.768697,418.43329,13.643147,63.733732,3.710053,0
9.17787,163.274828,20868.331219,7.72604,320.421432,426.994393,10.214275,62.430926,3.10877,0
4.270716,166.837709,24405.250535,7.39151,297.206739,349.51891,13.478526,54.47484,3.763906,0
7.348845,223.26494,11519.046527,8.889559,333.775777,494.158434,18.145374,73.715522,4.880875,0
8.52617,175.612836,11837.12336,7.483709,308.398516,474.240482,21.845916,52.372201,5.083014,0
7.080795,169.041917,36152.820899,8.330389,329.03971,590.748787,17.695114,103.150463,3.995974,0
2.612036,188.804126,34798.252587,6.796439,333.775777,468.080267,13.170763,49.52377,4.765205,0
8.490572,204.123648,22989.79639,8.270793,358.847115,435.000898,17.084246,62.421637,3.875557,0
7.080795,213.541932,22539.711615,6.957204,334.041186,463.398847,11.623019,69.61585,3.398593,0
8.858402,254.617519,9624.300462,7.954016,348.408195,344.303363,7.935468,78.10855,5.525726,0
6.098157,189.995846,27776.901052,6.443098,347.9304,245.859632,14.636882,73.424632,3.977362,0
8.419971,185.718989,13237.989605,3.998266,308.142639,463.647277,17.209565,48.783112,3.962478,0
9.286155,222.661551,12311.268366,7.289866,332.239359,353.7401,14.171763,66.396293,5.239982,0
7.875895,226.284788,12710.249452,7.303127,346.403258,445.374147,6.063462,63.128044,4.238589,0
7.725333,252.265491,36477.738112,8.386761,426.54359,339.411327,17.485844,60.483885,3.724837,0
3.388091,212.028944,20230.125577,8.569782,349.155999,353.912927,18.20834,82.387874,2.798601,0
6.745307,218.424637,21871.8387,7.165509,333.775777,373.050102,16.826619,74.08608,3.902353,0
7.080795,190.423899,28062.641892,9.615147,357.226709,263.771914,13.445225,67.055558,5.629016,0
7.183826,261.8508,14100.968987,9.008495,358.724702,290.423838,17.149907,82.025116,4.597166,0
10.111977,240.4321,15331.302692,5.392651,361.902926,403.04181,16.131124,61.111146,3.425763,0
7.397413,122.54104,8855.114121,6.888689,241.607532,489.8516,13.365906,66.396293,3.149158,0
7.812804,196.583886,42550.841816,7.334648,333.775777,442.545775,14.666917,66.396293,6.204846,0
6.877457,136.879214,27433.587294,7.091522,307.397088,342.196347,18.403846,81.193412,3.82765,0
7.080795,146.970245,16367.458372,7.687037,333.775777,468.945015,18.601381,49.561969,4.66435,0
7.080795,230.809482,27418.781044,7.136498,369.310008,274.660597,9.578585,72.376909,4.197595,0
7.521052,267.059647,26865.373741,10.44945,333.775777,505.709372,16.237746,57.03778,2.880785,0
8.550875,231.248787,28918.419953,7.822528,369.264223,432.28527,16.266297,73.149464,3.772887,0
10.308478,217.219746,27653.235184,8.912266,369.531206,382.951505,6.580402,59.57604,3.285077,0
7.080795,252.670469,29368.674184,9.906147,433.952212,465.216621,13.221034,84.198607,5.052737,0
7.371085,207.716824,24913.837166,9.61633,362.30018,363.168538,11.542662,67.720704,4.41259,0
11.180695,228.30086,16600.392747,6.094001,333.775777,504.050539,15.035047,110.739299,3.809842,0
6.506488,202.285938,17087.076902,6.201983,326.662368,481.771934,16.535186,46.205748,3.548776,0
6.643936,151.8896,10909.194592,3.749625,240.936722,437.909005,15.264742,64.203964,3.812953,0
5.033774,155.321478,34971.807483,7.121477,320.115497,500.637326,18.312499,63.193306,3.244948,0
6.912608,155.740495,17973.178859,4.916303,275.908228,439.648051,18.380712,55.507468,2.612249,0
7.977636,245.89513,32170.06916,9.635636,399.583155,473.662453,11.728338,23.81702,3.552129,0
6.078336,197.501912,35957.792183,8.130472,379.527706,360.060477,20.098413,41.86596,4.201581,0
6.242414,191.90873,28149.411792,7.130437,319.306785,448.242527,19.370091,60.939481,4.508705,0
6.063355,160.767311,14775.145596,7.484104,305.828553,327.270239,12.309016,69.038454,3.467337,0
8.129586,177.898967,27834.217696,9.006008,334.438539,397.021428,15.936262,81.390758,3.362537,0
9.562406,202.013643,13041.82914,5.820655,327.118824,433.381667,14.139066,63.548993,3.76272,0
8.167793,200.913755,27141.362903,7.262417,344.161134,525.598788,16.142284,66.231436,4.289395,0
8.594416,270.022706,15791.675351,5.912691,333.775777,672.556999,20.184051,54.961285,3.568992,0
7.080795,167.386127,20944.620814,4.963124,333.775777,566.339294,11.318807,66.396293,3.679795,0
6.825468,187.05171,46140.12685,6.137757,352.702182,373.427235,12.606382,58.752201,3.02745,0
7.861178,204.274241,25145.024125,7.923315,338.213803,469.486961,15.99341,86.167298,4.157657,0
4.965774,220.848639,21802.744898,6.250578,311.598136,386.413332,18.035238,53.908177,3.421767,0
6.207433,192.937027,13442.603471,5.819023,325.906562,533.795851,14.687539,60.485033,3.549299,0
7.080795,157.001287,20067.105328,8.071051,333.775777,490.909712,17.322946,71.969261,4.41756,0
9.769251,264.265654,8471.677381,8.34971,359.268543,353.196475,15.047087,52.645459,4.636556,0
9.630665,152.862433,23641.702565,6.925706,333.148318,417.167073,16.670184,89.997574,4.920091,0
5.187472,104.752425,20060.078727,6.913911,333.775777,368.815429,15.140348,98.656646,3.203258,0
7.63357,199.653,16312.154974,9.900547,358.566282,420.534172,10.539392,100.242706,2.927067,0
5.771199,155.050893,24909.44401,6.531261,297.009319,313.701934,11.704789,85.688303,4.688959,0
6.579969,197.226981,17657.084176,4.506293,290.289894,254.393276,9.847655,73.749716,4.575932,0
4.801154,180.772871,13556.734397,8.977286,322.062447,587.395012,12.401368,62.028187,4.418638,0
7.948816,238.23641,19129.458365,5.851965,333.775777,434.655459,8.663294,67.30404,3.692251,0
6.906992,216.785291,19991.239149,7.302352,340.106028,356.459137,9.614106,61.122644,2.124759,0
7.080795,281.268667,22452.090808,6.773699,343.635821,395.341775,14.90308,67.125168,4.44435,0
7.080795,190.77946,12224.310506,4.646211,308.564886,399.271359,11.876797,61.886636,3.463173,0
8.461331,212.581366,34406.776446,8.679152,384.855382,477.343369,13.801712,66.396293,3.771944,0
7.726135,233.947864,21667.868741,6.313182,340.273171,472.258994,14.39986,36.578038,3.720637,0
7.080795,247.661573,19549.499341,8.76967,333.775777,438.865775,16.624654,64.949008,3.777737,0
8.927078,241.875105,22821.254377,8.549738,367.975558,380.1972,10.859287,75.857068,4.601861,0
6.208016,153.221106,17358.796365,8.214939,328.282029,481.195673,14.274092,62.718199,4.334616,0
6.128426,141.49241,9615.83271,7.627919,277.951704,415.008737,16.435843,50.693927,4.633824,0
7.080795,202.254833,11981.740191,9.189106,339.983935,416.588906,14.079228,62.76553,2.678911,0
7.308049,274.70495,14600.539522,8.105803,384.564852,415.607278,16.761625,68.937227,3.69612,0
7.080795,170.099236,39906.190271,6.554996,333.775777,515.386742,13.516078,40.514172,4.353239,0
8.640886,201.568724,26473.713239,6.967095,352.306586,309.983287,17.665083,68.664923,5.263102,0
7.080795,205.509457,20406.927672,6.810069,355.265923,482.330055,12.337776,70.580607,4.102529,0
8.15321,127.144892,10280.929497,5.828358,267.636886,487.908327,11.943477,90.619354,2.905788,0
8.29372,206.160415,35216.38597,6.441,347.062241,399.483621,16.065668,79.954511,3.954715,0
7.080795,233.850345,21136.286764,6.689878,333.775777,332.737587,9.745282,77.529945,3.310859,0
7.080795,237.677383,26009.075259,7.074531,372.600296,344.767924,14.442238,72.69624,3.706602,0
9.489973,234.069965,15513.740378,4.735332,333.775777,277.97007,16.698216,81.427174,4.219968,0
7.830976,190.799044,7695.063935,4.845205,292.515824,507.445488,15.526658,85.009506,4.588785,0
4.430281,139.685759,28862.25717,8.961372,298.379458,434.781267,17.299294,63.042501,4.384565,0
7.24074,201.186804,23783.099556,7.751285,340.983683,579.220394,13.486379,62.650236,3.556297,0
7.080795,260.20536,19517.724799,8.764169,368.821037,251.020899,12.804588,48.65189,3.665522,0
6.867301,174.184976,24112.153471,5.529942,297.655575,484.122939,11.482687,65.304414,3.823595,0
6.129637,200.278182,30989.948415,8.830102,348.868154,341.388577,9.300117,79.553612,4.615886,0
7.917049,278.056321,27192.280561,9.220128,424.787996,358.781736,15.054313,56.839602,3.659485,0
6.511618,181.873422,29136.814624,7.685775,345.751638,475.341351,12.321232,52.437617,4.850434,0
5.323816,232.36858,37625.75268,8.879823,380.576472,580.8977,12.293803,55.310019,2.880722,0
6.769573,168.937072,11067.181148,7.121264,305.79495,289.54246,18.545903,62.001571,5.22054,0
5.877974,141.615287,13652.293199,5.701659,279.7824,538.495404,12.034042,67.907258,4.03226,0
9.534022,201.955208,9472.61492,6.105708,319.57642,259.636803,15.625617,66.396293,2.768239,0
6.340028,225.028148,45222.506665,5.809032,363.005755,435.500457,11.385937,80.670311,3.686001,0
8.661592,284.098352,27088.47646,7.897857,333.775777,512.27731,16.912142,72.465763,3.670431,0
5.653506,146.590232,16462.460086,6.501596,299.644611,272.440558,13.795264,87.822585,5.198986,0
6.626012,112.299485,25839.894104,7.658747,312.247043,327.248079,19.409147,85.785103,4.194313,0
7.793834,176.866483,18344.680361,7.567677,338.229597,371.216973,9.039042,76.288076,4.172935,0
7.593128,261.566173,18371.057201,6.297543,333.775777,387.629572,16.575981,51.830948,3.377338,0
7.362737,185.692181,16268.448606,5.317019,316.918648,419.258448,16.024246,64.678914,4.408513,0
9.320305,129.823859,16002.13832,4.405035,271.670562,499.844167,13.076859,82.837583,4.20581,0
3.719792,248.859267,23590.932129,7.683742,351.555482,427.495931,20.393782,38.604937,2.718398,0
6.655605,216.441172,20571.845708,8.984237,333.775777,336.831455,17.745996,71.704305,2.951645,0
9.868878,214.166235,15326.855914,3.351598,297.084174,424.292831,19.188441,70.070514,3.35549,0
5.590614,229.192139,35370.735515,7.989641,333.775777,469.41309,13.281556,76.992716,4.726845,0
5.554437,229.122829,31344.460394,7.761431,333.775777,306.872526,13.9748,87.273375,2.095914,0
4.126529,125.474884,11215.945902,5.366011,261.444798,445.241457,18.575921,86.433655,4.460201,0
5.970036,230.449329,16324.115196,5.293919,315.186121,327.786642,13.325987,39.554249,5.428674,0
7.080795,229.77135,16162.262307,4.933662,333.775777,448.846036,8.816487,66.396293,4.600928,0
8.369154,183.500378,12975.900334,6.600853,315.901122,493.46544,12.987106,87.02941,3.629749,0
6.284248,190.017649,12206.68121,7.910711,333.775777,395.261063,13.24614,58.927726,3.377132,0
11.267828,161.896362,6040.369868,7.205414,333.775777,316.535871,11.768309,25.525267,4.153347,0
9.298018,163.038835,13990.513403,4.249702,333.775777,399.477358,15.365884,83.923168,3.681324,0
7.895469,154.26578,7769.616119,7.205262,258.312879,407.732217,16.420041,63.016018,4.236947,0
7.947486,269.809407,34440.773434,6.958283,390.104223,425.627814,13.749261,56.635811,3.700854,0
10.026159,224.266358,14962.177833,7.428313,336.97295,517.512842,18.858519,65.363452,4.182278,0
6.488193,225.481909,34864.427893,8.951692,385.505635,324.509841,12.696545,97.11286,4.592074,0
5.869737,207.725455,22244.218236,6.597764,352.563987,465.616481,14.8381,77.822737,4.689315,0
7.080795,220.813702,21410.319624,6.32488,335.845863,382.197839,9.500296,86.990134,3.659975,0
5.304143,160.968358,25299.511557,6.286043,300.500689,497.790391,15.01303,61.115513,4.165724,0
7.533615,186.918245,11642.727541,5.890684,333.775777,363.506344,10.740146,49.574308,3.462764,0
4.077608,207.838048,18194.95414,7.923974,333.775777,288.365193,13.306692,35.824556,2.758659,0
7.080795,105.859264,37928.142177,5.60944,333.775777,358.888768,12.207108,71.11989,3.873853,0
7.086168,189.145378,4304.492483,3.615891,259.373322,400.90435,12.993012,63.902288,3.41654,0
6.271012,213.444685,24846.141872,8.372997,333.775777,543.391744,17.916526,84.578869,5.303581,0
7.957768,276.733569,17162.398421,7.841542,397.431962,514.421722,14.529779,60.559699,3.450746,0
8.875642,228.921587,28487.708598,5.318732,351.960723,474.772519,14.68397,52.57886,4.006992,0
7.080795,192.447171,18257.569271,7.472249,313.776546,462.402449,13.932145,53.185917,4.358298,0
6.613709,141.128922,25648.569496,7.222972,295.236892,374.770316,14.038263,74.29925,3.539771,0
7.735705,137.318166,16723.977244,7.675826,282.539892,595.329263,18.756139,63.042779,2.148612,0
9.925041,238.713393,10704.603182,6.110019,351.597423,405.900184,13.550367,59.462669,4.703803,0
9.002583,202.990765,19523.124865,7.244753,330.361512,366.491729,15.689404,55.6974,4.904837,0
5.095766,273.408448,26307.298455,10.219804,380.201498,513.877579,18.272418,61.425187,4.352193,0
8.594677,263.764593,23220.120613,6.394463,383.962592,588.852733,13.579996,86.191635,4.754072,0
7.083779,112.820254,8580.245561,4.210284,234.852699,434.747715,23.399516,94.160307,3.887681,0
7.682872,180.701375,12105.721934,5.396716,296.238877,469.835626,15.831763,61.802095,3.778607,0
7.080795,133.813115,18272.505973,5.911871,333.775777,415.211735,11.504506,92.975762,3.313199,0
6.419772,208.760248,30759.68144,7.767863,333.775777,523.600176,20.232523,66.396293,3.095233,0
4.443239,178.956206,25008.532248,4.948815,298.576676,429.544773,17.729724,56.347689,3.268325,0
6.978664,183.242796,23114.446076,6.500825,323.155777,470.078705,16.082847,65.995717,4.766943,0
6.623614,203.030141,17167.301297,6.049601,311.726288,410.243247,15.9145,65.021229,2.915166,0
3.664711,201.097316,28102.756625,5.682035,330.023531,291.148449,17.470631,75.101801,3.316158,0
4.814136,205.214041,17650.405049,8.12108,350.487939,414.030709,10.999416,47.402666,5.190852,0
5.779674,199.58608,24160.354321,9.458128,333.775777,428.553249,16.022503,64.872703,4.656377,0
6.937819,177.578142,12626.197922,7.380883,333.775777,439.624998,9.348252,83.163242,3.72409,0
7.436783,208.094004,28544.616287,6.500053,339.023898,522.79373,17.115276,65.311277,3.727664,0
4.723313,252.274895,22833.192042,5.922451,378.560304,411.295025,16.584571,66.728402,3.917587,0
9.380658,265.061216,15156.789834,4.271545,333.334469,503.170615,11.28641,99.016003,4.034349,0
7.810145,187.315048,20418.889926,7.214896,325.228881,351.186081,16.8004,68.48548,4.033774,0
9.436637,143.788412,20724.930359,7.7001,333.775777,469.761328,14.215765,66.077978,4.411117,0
9.406326,216.762159,27948.589445,6.156111,355.473035,347.983078,16.340715,32.108292,3.097278,0
6.321259,207.25771,8532.139517,5.987877,286.48928,491.765313,10.546886,74.502808,4.501457,0
7.080795,217.369746,17984.327439,8.594163,333.775777,409.220776,10.213779,18.400012,3.605154,0
4.705356,103.173587,19555.765052,6.767298,333.775777,370.178166,9.182834,93.900486,3.43745,0
8.896419,222.256293,8870.902966,6.011342,332.00263,425.226862,10.847737,66.396293,3.700946,0
6.581878,272.982745,37169.444404,8.114731,416.083481,351.476839,15.129334,79.261026,4.201663,0
6.755146,231.260131,18536.698647,8.757133,342.548014,385.114648,13.888834,79.302436,5.16273,0
9.44513,145.805402,13168.529156,9.444471,310.583374,592.659021,8.606397,77.57746,3.875165,1
9.024845,128.096691,19859.676476,8.016423,300.150377,451.143481,14.770863,73.778026,3.985251,1
7.080795,169.974849,23403.637304,8.51973,333.775777,475.573562,12.924107,50.861913,2.747313,1
6.800119,242.008082,39143.403329,9.501695,187.170714,376.456593,11.432466,73.777275,3.85494,1
7.174135,203.408935,20401.102461,7.681806,287.085679,315.5499,14.53351,74.405616,3.939896,1
7.657991,236.960889,14245.789121,6.289065,373.165363,416.624189,10.464239,85.852769,2.437296,1
8.322987,207.252462,28049.646283,8.827061,297.813085,358.725869,18.709273,60.91142,4.052136,1
5.934279,223.858125,23249.653834,4.60285,333.775777,277.384537,11.366863,66.623944,5.217895,1
9.802721,98.771644,27357.456745,9.21815,323.199077,512.428731,14.168934,59.45444,2.764634,1
6.101955,215.26809,15976.926225,8.85716,308.482695,417.843553,13.147279,62.505642,3.535596,1
4.997771,280.082411,26849.194735,6.130757,374.232961,297.61154,15.571571,70.560275,3.404633,1
4.815767,217.687093,16392.135069,7.46117,278.742296,481.480828,15.517296,77.693374,4.375224,1
6.548021,278.585105,25508.386949,6.749378,366.871502,497.321753,16.563167,79.323678,3.61186,1
13.175402,47.432,19237.949676,8.90702,375.147315,500.245952,12.083896,66.396293,4.106924,1
6.618011,233.661636,19598.86074,4.701049,432.556385,401.669791,11.766146,73.191921,4.437696,1
7.788055,212.691457,29879.060146,6.998962,360.668259,359.569082,14.828743,83.856336,3.368757,1
5.191834,211.094185,14866.103863,7.238691,323.109285,388.71658,17.78,83.505406,3.859801,1
5.62634,230.857983,14442.418875,5.210369,333.775777,346.553206,11.368702,43.195182,1.943319,1
6.869639,251.293448,21728.821295,8.803175,279.776857,539.466877,12.99414,56.409708,4.726702,1
9.058628,155.357557,15737.468938,7.251979,343.233977,463.389256,17.85447,83.175189,3.652134,1
7.291888,127.544297,27784.048484,9.754476,247.335412,439.649329,17.285042,59.55633,5.328713,1
7.275909,175.220376,22644.766348,7.886855,293.309854,373.345693,17.411683,56.799287,5.062298,1
6.512737,229.263861,22475.046873,12.580026,192.033592,479.501279,9.983462,66.668576,4.612964,1
7.207887,175.870294,35804.292613,8.066059,320.102173,468.562829,16.164091,71.146661,3.762741,1
7.080795,156.520635,16146.157112,6.629599,352.353431,629.281248,13.507688,42.34017,3.772919,1
5.324942,280.089655,35344.658047,13.043806,180.206746,392.421496,10.50482,55.084668,4.427138,1
7.082301,169.468927,29846.719057,5.443387,350.401849,353.03038,18.959534,30.389096,3.485577,1
5.334184,224.787936,28897.491527,6.048525,333.775777,360.179177,12.247344,67.154751,5.091357,1
10.761898,81.710895,25999.953669,8.477394,318.427241,392.704082,12.71635,52.246972,4.661799,1
6.286807,258.300052,13777.376191,7.483258,328.68065,563.434775,16.460837,73.516654,4.104863,1
9.794559,129.870958,20682.731742,9.390843,291.980083,427.123948,11.853228,78.711469,2.945419,1
8.210444,167.102192,13933.08536,10.422842,243.485942,391.068874,13.747058,61.05821,4.976055,1
6.941719,173.334389,20111.821256,6.697194,333.775777,374.485332,19.937486,66.396293,4.563183,1
10.356119,136.323752,48621.563952,9.158704,327.922751,365.720292,17.975564,77.359854,4.201849,1
7.958984,171.483625,23625.813886,9.537735,259.979966,327.623881,16.11711,107.754043,4.698008,1
3.882631,243.80795,7751.809491,0.530351,333.775777,341.291116,12.990592,60.109968,3.734001,1
5.671774,216.042811,15949.153179,7.500573,333.775777,372.535243,17.895724,77.457885,3.83316,1
10.003301,143.094285,46113.957485,12.912187,333.775777,574.555041,16.96331,36.767671,4.746382,1
6.552847,198.80694,34006.420733,8.691206,274.904351,477.163907,14.36963,78.173063,4.687986,1
7.628553,156.793694,26244.036908,8.33761,255.043194,495.966986,13.633974,65.604841,4.182057,1
4.790841,268.720881,17862.369003,4.554574,377.241161,608.846856,10.806313,83.702236,3.258859,1
7.71096,181.938126,6552.626314,5.389249,390.596392,516.284083,17.010785,58.241734,4.288947,1
8.291299,211.217034,20008.134957,8.767875,275.767321,475.90913,12.614669,66.612984,3.424702,1
6.19317,225.683422,12883.726496,4.73936,333.775777,389.405978,14.560136,76.457816,3.466645,1
9.032661,121.441442,15618.170248,6.157491,372.927456,390.657226,15.030315,63.125617,4.927218,1
6.139494,236.674026,8081.466471,6.250808,333.775777,416.238821,12.777014,106.037222,3.260907,1
7.129425,178.372352,25840.578888,7.487823,312.982727,323.298915,16.406156,69.157609,3.418611,1
7.080795,191.285218,21948.325362,5.626787,355.488766,509.406822,16.691471,84.107738,4.10959,1
5.418504,187.776809,35902.715684,4.357088,333.775777,454.520296,6.37407,103.373005,4.50654,1
8.075495,195.804996,29483.601854,10.493841,298.737219,321.748339,9.751086,72.734423,3.68292,1
7.080795,225.287704,22511.692615,7.057578,377.12897,291.353701,11.590025,72.508523,4.081701,1
10.049674,132.832837,11557.032038,8.550573,323.508072,442.76805,13.376149,92.17617,5.133478,1
5.667651,229.928367,16953.898736,8.774306,293.57425,554.120536,14.254641,54.436702,3.633214,1
7.080795,181.689164,27776.180257,7.589869,298.226719,417.631202,8.630091,72.923289,3.80792,1
8.923981,135.938467,27919.770666,12.363285,333.775777,415.629484,11.949914,69.31488,4.155583,1
6.428866,225.613094,15596.473334,6.153472,333.775777,466.044399,18.015385,87.163631,4.184783,1
6.960604,201.715452,11348.675997,4.29789,333.775777,468.591388,10.490589,89.686196,4.97882,1
5.873676,203.329928,19216.68309,9.212779,333.775777,420.29123,11.119274,65.229551,5.412091,1
6.795469,187.78302,15300.838671,7.486598,316.956934,498.665928,19.600429,55.401113,5.163088,1
10.041028,113.831112,16266.434445,7.939074,363.86689,557.486061,13.195341,75.233221,3.807563,1
7.080795,273.255621,44506.441561,8.412688,233.792588,485.647232,14.705014,52.164236,4.124781,1
7.296038,235.735193,36043.706638,5.196213,377.190666,385.614321,17.052713,89.623551,4.168526,1
7.080795,161.826476,29299.123353,7.028797,350.43094,375.780716,19.762576,86.698457,3.497577,1
5.862641,185.06522,44069.272158,4.382721,412.690111,331.570139,15.306079,59.605812,5.507421,1
7.292142,174.480427,33991.651567,9.511792,259.164965,435.108017,16.293614,81.690104,4.466913,1
8.062806,200.493112,11567.88784,9.88995,333.775777,510.414403,10.650935,40.992809,4.471842,1
7.821971,157.181545,23318.187976,9.08404,324.851659,294.636531,17.186766,72.568376,3.532958,1
11.301794,77.459586,39227.619457,8.517986,337.501247,410.856114,14.326889,53.12126,3.30958,1
6.593764,233.514132,25589.610592,9.785696,333.775777,489.703444,14.389609,46.463982,2.346578,1
9.161089,119.841905,26618.059637,6.105573,343.289234,379.725182,10.899926,54.580736,4.888061,1
7.080795,144.815264,14507.017808,5.819092,353.607275,290.889472,8.942072,67.587346,5.922582,1
4.642953,307.706024,16115.929864,7.707342,333.775777,439.944408,18.44079,60.145842,3.982867,1
7.798454,188.394942,32704.569286,11.078872,258.191184,507.178688,18.272439,85.177662,4.107267,1
5.564342,256.20883,11245.735767,7.212254,329.338366,369.555513,15.640053,51.150344,2.285988,1
7.886591,213.052591,38852.029636,11.170789,281.700777,326.11535,10.385172,64.662501,4.589984,1
7.443189,193.124799,13551.953345,4.313265,333.775777,430.487296,19.396329,72.075586,2.664833,1
3.657123,275.767142,23736.816258,9.100772,333.775777,426.231129,17.985957,55.694893,3.31463,1
9.597192,167.088976,21153.322827,7.944469,346.075016,335.197608,14.347676,50.642447,5.145153,1
6.964226,212.764494,29957.191215,7.675188,321.250898,378.085546,13.127694,72.089001,3.990438,1
7.67291,152.878305,22989.351184,6.231913,343.439017,401.140879,14.252684,64.291292,4.268227,1
6.737004,220.100102,24694.744205,8.37366,333.775777,384.308673,6.748092,8.175876,4.06317,1
7.080795,163.224466,18570.285339,8.109346,296.190262,463.741716,16.900148,61.349832,4.135745,1
5.382489,240.018214,18189.39498,5.55199,397.700065,551.476202,12.81873,79.779911,4.17333,1
7.022952,264.525606,15978.355249,10.956205,262.064551,412.709423,5.315287,76.024491,4.971907,1
7.080795,250.705394,27355.934306,6.482038,377.358048,559.817847,13.65396,77.91772,2.969136,1
10.026224,94.091307,25510.097298,6.614114,385.402659,388.467266,11.887161,69.273979,3.736228,1
5.583833,261.233825,35278.681743,6.594617,333.775777,278.639039,13.565387,83.274895,3.870157,1
7.952929,221.369854,18621.424923,6.879418,333.775777,309.25462,19.056985,72.689354,5.260015,1
5.500187,254.672705,21082.852044,8.369354,347.816514,469.795375,13.496404,60.045867,4.178479,1
7.5437,161.623142,19116.012084,8.493407,289.959953,440.283446,13.33677,80.243237,3.630537,1
6.848332,159.18805,12837.506063,5.164448,373.991711,558.815567,12.254081,69.77221,4.396605,1
7.080795,181.21051,30280.788593,10.382547,256.630068,487.997262,11.346302,68.843866,3.779554,1
5.910252,282.739017,15244.846395,6.636551,363.384683,695.369528,13.138353,89.801011,3.660923,1
8.71682,153.980034,11734.448857,7.123611,333.775777,447.028077,12.736044,39.927521,3.205129,1
6.016889,221.147308,16656.062672,5.201688,333.775777,383.207775,22.51787,81.626232,4.422269,1
9.567823,173.111498,38787.462705,5.15,444.970552,492.411524,12.904221,48.481477,4.197919,1
4.296247,278.147524,19672.487213,4.955218,414.636726,330.067379,11.293187,70.66554,4.163329,1
3.551579,323.124,38969.388992,8.925515,333.775777,514.762918,10.160303,71.099999,3.965994,1
8.529669,157.700481,18203.730029,8.926826,309.541977,498.650833,12.287824,52.028741,3.776041,1
8.065339,174.120584,21366.283598,7.490944,315.180405,497.019234,11.417019,46.213198,3.756392,1
9.158445,186.672973,15797.030396,8.151081,333.812264,425.752018,12.182639,112.622733,4.525237,1
8.848586,188.919983,32033.332019,13.127,182.39737,479.791975,12.070444,77.671337,4.014682,1
9.495456,185.878594,18088.35485,7.527375,388.768657,409.450998,12.397704,63.359144,4.168541,1
8.052894,198.994474,9025.07936,7.217788,338.39691,328.43311,9.142523,42.753215,3.634845,1
2.798549,311.383956,26931.243483,7.116897,333.775777,521.140524,14.235154,42.080353,3.663252,1
6.425874,188.980282,11965.396508,7.571123,365.453655,502.991088,13.866487,96.818113,3.731937,1
7.75727,213.048445,25259.780549,7.635153,363.684814,543.528799,15.254021,107.189584,4.165432,1
7.748655,239.788278,29331.236633,10.713097,217.000607,441.529547,16.389384,66.396293,2.51181,1
5.11739,225.657404,30914.111579,6.207729,371.649392,356.862287,8.073421,77.388138,3.937188,1
7.481535,218.26117,12088.41645,4.87066,407.29655,518.375573,17.120962,56.711024,4.262065,1
5.374223,201.33144,19410.233763,3.23958,384.562838,350.17804,13.451089,66.396293,3.642778,1
7.063647,140.612866,17941.811256,6.275305,376.046156,402.593602,12.43974,29.468428,3.395866,1
6.876451,190.844514,21979.031671,5.630558,363.831706,349.186085,9.551732,68.410851,4.545341,1
4.812434,250.183954,11465.575643,4.362641,398.161904,607.026542,18.210032,62.511467,3.020996,1
4.993531,242.620503,13900.779271,6.467744,333.775777,429.827819,17.274663,61.245788,3.153809,1
4.788861,234.893703,28174.620516,10.850036,187.424131,444.854321,11.784799,89.010974,2.896852,1
4.037288,291.461897,52318.917298,7.779459,333.775777,401.204271,16.542921,87.8148,3.045049,1
6.505873,240.287912,29534.690292,6.775277,341.728239,265.251199,13.570223,93.166465,4.497529,1
6.779774,153.886309,24415.070564,7.322672,333.775777,459.87655,14.78229,93.914702,2.729105,1
6.952512,211.697297,33737.288524,6.300871,333.775777,395.407004,14.182396,39.802907,4.105495,1
5.628407,226.830043,28334.491937,8.012497,293.924273,351.161213,15.019241,35.178662,5.050683,1
5.966,194.796221,17350.058531,4.466577,404.609982,406.806302,11.539987,48.173359,4.177139,1
6.319432,180.965621,36278.718309,9.960552,275.591746,307.691361,18.196931,93.594246,2.653127,1
8.027248,193.352416,7714.746969,6.087238,333.775777,440.938978,22.504679,62.007044,3.480641,1
8.882684,135.523062,4857.253807,5.209779,333.775777,532.336659,20.296274,20.337753,3.827921,1
5.991283,224.608563,29983.116007,7.383819,329.731547,604.631263,17.741228,65.116976,4.840562,1
10.272444,163.624623,18894.852394,10.068205,269.646656,446.450725,11.856914,82.445503,3.179885,1
7.080795,131.547744,21626.497595,7.207846,333.775777,390.955033,14.844955,26.505484,4.728124,1
6.10514,249.141391,45249.449033,7.36936,338.771307,314.96509,11.251778,88.657477,3.10309,1
9.443359,73.492234,20438.22469,8.024953,315.805659,458.677231,12.538681,50.85247,3.486646,1
6.887414,223.603058,29189.136721,10.514466,253.830552,386.622862,11.312294,67.916183,4.564188,1
6.512901,169.21748,25151.411574,4.613311,375.612318,296.074382,15.0887,74.075926,4.40404,1
5.772718,213.363545,26124.931415,8.630719,273.279448,465.559286,8.006208,59.964334,6.494249,1
4.912557,308.253833,44063.098417,7.927977,280.933664,327.47565,14.857981,66.396293,4.897373,1
9.739562,166.948864,13623.160063,7.235922,385.059134,369.591289,12.322604,68.505852,2.56808,1
5.541979,185.671874,20143.065262,10.236176,209.471058,517.935786,18.464015,49.371319,3.672976,1
7.080795,193.503415,42268.334296,9.005943,258.392683,384.684875,9.085279,75.439633,3.601735,1
7.080795,143.3002,16263.167465,6.229737,333.775777,503.664085,19.585497,66.396293,3.45174,1
6.448931,240.244771,13979.165723,9.077985,314.590477,473.751302,17.416903,84.024786,3.622196,1
5.477912,211.398844,27361.659066,5.810457,340.623806,358.04413,16.629384,66.396293,3.774256,1
8.544709,181.413402,31429.379029,7.55503,350.397082,393.889616,10.247232,82.721912,2.318152,1
7.378597,175.982447,9460.322635,5.941012,333.775777,402.019945,15.639455,37.389452,3.215219,1
6.664003,199.588718,15902.945276,5.257789,346.584556,347.353336,15.989419,61.156575,2.227728,1
6.775583,218.414929,17968.882775,8.254115,333.775777,358.717677,10.520161,57.244111,4.333636,1
8.736371,194.677687,24283.658791,8.855544,329.004205,333.623794,16.516232,67.250473,3.802116,1
7.146976,196.562685,16911.203773,6.890505,320.100875,520.111358,12.854239,66.814176,4.025762,1
7.080795,242.909436,9654.733681,6.25398,359.665835,588.566713,15.197015,62.82285,5.652222,1
5.040332,232.234479,25653.690231,5.929308,328.32958,529.052535,13.53941,38.346738,3.603326,1
7.080795,281.582162,21707.492258,5.037261,348.239719,347.957499,15.370098,85.92035,4.003819,1
7.745499,168.355624,14336.627521,5.26431,333.775777,421.485334,7.49641,67.624767,4.043335,1
6.259652,208.37943,37356.746401,8.565487,256.473839,380.240193,5.567693,68.441865,4.213405,1
8.596391,189.523161,14518.974501,5.124129,422.990413,348.041489,17.358071,66.396293,3.519884,1
5.76735,272.472178,15417.932834,7.72886,315.404917,424.461152,15.284268,60.822135,3.89609,1
7.088941,206.364122,13839.713426,8.088242,321.296141,369.969333,14.896092,66.674658,5.661104,1
8.029182,158.040398,19663.469428,8.433448,283.270495,431.304716,20.696198,59.972929,4.388551,1
7.080795,286.201763,46931.884293,7.440024,262.526456,557.421879,14.47165,74.04386,4.120931,1
4.725786,249.670999,20834.294278,5.03601,378.998684,411.114485,17.769641,78.817436,3.156331,1
8.195765,214.51761,10389.542538,6.295405,327.193898,403.189913,15.067042,72.756812,3.218709,1
6.443754,196.615992,25740.412591,2.48438,435.672765,352.353623,16.924419,33.051888,4.498685,1
7.039094,179.645225,28827.360186,4.945555,389.889271,593.396225,12.079207,58.363507,4.366031,1
7.080795,185.755728,27345.174288,8.932764,333.775777,313.878771,13.420126,56.97485,4.407566,0
7.080795,185.846797,14971.949025,6.666343,346.486189,418.453591,18.684215,67.71246,5.110414,0
6.945224,220.960041,36438.310876,5.55166,337.963891,367.997977,20.160734,53.007723,4.823082,0
5.74211,188.216604,26831.610411,6.202721,318.376676,498.142386,9.65736,53.508523,3.32307,0
5.596628,177.213792,17925.35212,8.43547,303.734166,552.308706,10.339986,57.820611,5.235111,0
7.350379,193.633367,26736.085567,10.416589,309.416883,557.495685,16.519722,61.077383,3.663922,0
6.262799,206.889748,31414.525805,4.528076,349.734662,567.027274,15.96354,73.022605,4.012518,0
9.927024,208.490738,19666.992792,8.008618,340.237824,482.842435,11.360427,85.829113,4.051733,0
5.381408,175.574307,15371.999944,7.457245,312.354938,308.729798,12.17894,66.396293,4.364067,0
4.961353,166.259962,22229.23009,9.922078,295.131831,449.147191,12.001547,63.427979,3.902838,0
6.457098,192.264945,18340.046806,8.832138,335.970114,517.432197,23.373265,51.7971,2.637365,0
6.53937,214.638603,21230.431409,6.485594,336.974861,532.572785,18.263688,90.908081,4.527364,0
6.25241,225.784101,23920.254778,7.018165,303.791688,484.585791,13.433506,67.401384,2.722908,0
7.967345,180.531707,19384.037432,9.868238,325.496848,386.055331,11.265127,67.272207,4.069359,0
7.080795,212.73169,37030.70812,5.04032,351.064458,535.302351,15.895048,33.370713,4.825792,0
7.609521,223.288394,40879.789573,7.030699,310.63245,370.27088,14.375368,73.756957,3.145843,0
6.887864,173.325022,19947.924178,7.488703,334.098023,441.002612,10.780501,89.005492,5.454488,0
9.879071,208.905645,14673.670669,6.240248,366.817639,442.337486,19.626022,66.816581,4.218831,0
7.638762,178.271636,18308.502674,6.548098,362.332872,394.180985,11.291788,81.989156,4.496627,0
6.961892,223.595839,31101.684277,3.692065,343.827276,530.22141,13.67548,70.434962,3.446728,0
8.06061,208.042711,15489.32566,5.620299,361.970424,423.420838,15.37155,75.445589,3.600906,0
7.240272,213.423139,23432.962694,5.927868,328.359206,325.387708,14.033553,60.571081,3.832597,0
7.48678,199.677784,25396.011782,4.960558,342.453546,444.678579,16.115432,43.142016,5.048834,0
8.410461,234.876524,27554.345263,5.681716,362.48956,519.031625,14.482213,55.628499,2.97736,0
6.143921,175.274076,29072.169654,12.062536,287.698157,469.983324,13.142493,83.279658,3.476213,0
6.09618,174.871629,16314.233375,8.063021,333.775777,435.783775,10.658878,62.083589,5.142471,0
6.384824,243.688075,39960.298951,6.697657,297.185549,437.727915,15.96749,54.930317,4.144999,0
9.462666,225.399307,12224.624604,2.981379,387.09872,485.697274,13.204394,62.297699,2.850184,0
7.868147,199.035973,20434.105735,6.210994,337.916091,549.414983,16.501578,66.396293,4.315898,0
5.873157,153.673381,21910.76357,9.752879,319.356743,352.456041,14.15411,65.234629,5.120888,0
7.080795,186.873014,26004.528877,8.493529,320.693485,534.130272,19.890025,54.373956,5.144114,0
6.529304,210.004033,28970.087606,4.250151,333.775777,422.817556,7.091298,83.690156,3.361088,0
5.152204,207.29926,27000.10688,6.691806,333.775777,350.004978,12.490509,49.852965,4.689843,0
7.858663,210.954754,26703.853473,6.509065,341.341899,374.072845,8.811986,72.799798,3.422471,0
7.70441,234.635951,22057.379165,8.124403,333.775777,397.39966,14.897563,50.920436,3.031364,0
6.728004,201.126896,22888.788065,7.663988,319.463491,325.537539,16.788306,58.96122,4.410697,0
10.464502,190.994848,6700.775054,6.879858,333.775777,498.931911,14.562161,66.701621,4.956358,0
9.112786,205.941072,20868.627979,6.96279,330.93429,422.039495,16.128976,77.79653,4.567088,0
8.079808,174.161094,12677.841496,7.295212,333.582542,589.552211,14.852225,39.529387,3.611057,0
7.078659,232.581848,26177.789508,3.914353,334.161127,380.459918,9.633631,41.95194,3.69664,0
7.080795,139.331152,2912.211247,10.338234,343.318021,532.885196,11.078341,42.172824,4.093098,0
8.043889,169.688225,8896.195118,7.837861,328.939817,430.836825,12.263492,76.334247,3.159949,0
7.040245,192.955983,20988.42941,6.422359,320.948844,381.35735,15.396455,88.298465,3.99341,0
5.483974,166.161837,21144.975258,7.607611,322.733094,306.355904,14.17101,64.136528,4.063614,0
8.534407,248.577482,22372.303267,2.993744,366.146249,341.760198,14.692902,78.708937,2.544734,0
7.266595,176.853696,14859.059661,8.261778,327.172252,445.037456,19.923704,87.066131,3.357439,0
6.256651,181.072307,16905.801524,11.586151,333.775777,481.307052,10.639743,74.557241,4.181051,0
7.240351,201.997196,14462.674308,6.737176,314.043137,534.800988,14.213794,82.945817,3.782972,0
8.692115,144.236358,2552.962804,9.202634,347.975137,517.427471,13.963421,42.388661,2.283475,0
8.639541,168.613967,7013.211787,8.451601,355.213897,419.788898,17.929395,33.641539,4.192932,0
7.179864,180.854211,10859.553752,8.263503,341.302486,358.056264,12.065317,83.329918,3.878447,0
7.163999,203.781598,34226.072127,9.412035,320.258917,415.577513,16.221044,90.184208,3.354322,0
8.926113,189.987947,15249.620244,7.076222,341.526873,361.901628,21.278095,66.396293,2.752134,0
6.35311,206.26981,18409.037315,3.723776,348.209863,389.683234,13.205425,60.291342,2.856175,0
6.681554,238.512441,26132.211812,6.304459,309.237009,326.026227,8.138227,46.08726,2.956748,0
5.445326,201.379459,28001.118179,7.208946,331.587484,365.091587,11.788777,65.944566,3.94699,0
7.539882,185.825975,21575.245221,7.442999,333.07963,444.116633,15.830565,49.067977,4.531594,0
7.080795,199.918014,15335.511433,8.092377,303.327182,399.605446,11.821736,58.222293,4.48246,0
4.370477,188.654037,29542.338165,8.117114,301.022182,456.308454,16.346838,46.696941,4.649382,0
10.3164,217.266842,10676.508475,3.445515,397.754946,492.206474,12.812732,72.28192,3.407349,0
6.599594,198.323261,21078.887166,6.234231,331.495637,447.987791,12.936304,59.833619,4.702311,0
4.197584,189.473677,31292.127704,7.105204,333.775777,370.771413,11.986402,50.32283,5.20648,0
7.920795,173.357151,13454.634777,6.947895,356.768119,471.368695,16.47784,68.000508,3.374327,0
6.330733,166.738009,18397.199408,8.076426,333.775777,436.991752,12.905189,67.648556,3.94,0
7.080795,181.296125,23433.901774,7.729588,333.775777,329.740862,12.275713,38.756798,5.128347,0
7.764143,186.132432,25926.075643,8.011207,333.775777,399.131718,22.846529,35.243678,4.105178,0
8.237143,190.059695,20015.398106,8.385217,356.091761,377.682097,17.740944,37.713878,4.939109,0
5.679234,188.188696,35643.181208,8.882654,322.169383,256.302559,15.00026,66.396293,2.339573,0
7.41757,193.771878,23207.092841,7.472115,333.775777,496.105188,15.744353,73.187475,4.671558,0
4.775983,196.273964,19185.791877,4.94293,329.143912,459.083557,13.37095,84.58425,4.382162,0
7.865095,210.039294,14310.623301,6.6129,333.775777,403.360596,12.879341,74.134788,4.795026,0
5.903466,201.864032,25394.10472,7.692154,313.648072,434.719747,18.006703,59.97216,4.587087,0
7.705711,178.922858,18476.619166,8.226228,334.889911,518.043369,10.638798,63.157489,3.861956,0
7.815122,190.313904,20229.10815,9.186893,335.638726,379.222873,14.979348,73.425428,3.096163,0
6.139743,168.444214,23894.13601,9.494582,318.026087,494.129125,19.116022,60.264767,3.841222,0
5.041405,193.167853,17342.314079,7.842975,322.106997,444.453496,17.472788,66.542198,4.543686,0
8.675193,200.735941,15049.584199,8.630381,356.805465,441.298088,17.853054,74.586511,4.978575,0
7.689358,221.356885,30253.851103,6.269309,320.478106,529.746529,17.973277,84.696366,4.978556,0
8.570129,200.071875,9782.344284,5.661697,333.775777,511.161511,11.856089,66.048413,4.604405,0
5.671762,184.781842,17527.716726,5.314759,339.05648,409.479378,15.196045,31.941831,3.268694,0
6.624806,204.342928,21443.264749,5.980402,312.315229,412.996763,11.965107,62.520333,2.840911,0
6.541008,195.566889,29616.492869,7.108628,328.99854,530.799668,11.899398,68.141446,2.355934,0
7.080795,169.188736,18408.294971,5.131839,342.937675,350.894362,19.334232,86.677328,6.739,0
9.241198,223.69135,21610.581297,4.116183,333.775777,480.013056,12.725428,65.550704,5.265729,0
7.080795,162.626287,21318.961685,7.575279,289.208408,457.811556,7.477315,60.238478,4.514982,0
6.340809,158.342741,15288.213774,7.599752,342.4477,334.937302,9.237118,38.103917,5.45861,0
5.980357,181.258705,11826.294275,3.688504,356.166613,543.347976,8.828689,60.206381,4.24724,0
7.605979,172.198136,10930.055671,8.432639,333.775777,400.706161,12.560446,51.64378,3.24285,0
6.427512,178.326555,25993.711406,7.294554,329.695223,566.754724,11.97427,60.736723,6.032995,0
7.080795,196.248857,17909.365782,3.672271,333.775777,417.287315,14.557068,57.734652,3.888235,0
6.109073,191.755571,26853.949493,9.064613,312.201984,375.547362,15.514033,73.789683,4.881101,0
5.842933,168.295287,19156.123132,6.878348,331.477649,506.756808,14.526151,80.423715,4.143225,0
5.367546,175.432819,29009.010821,6.481444,333.775777,463.478425,19.370234,67.286208,4.26719,0
5.345887,184.784575,22274.368372,9.727103,319.030495,492.135489,11.894673,87.297686,2.950361,0
5.386307,212.592991,40149.316557,8.124232,318.791667,355.54642,17.348802,64.210905,3.662563,0
9.919478,207.065587,16544.275591,7.039311,363.036851,278.753204,17.05254,44.299534,4.117488,0
7.080795,218.302176,42061.322799,6.331177,324.541596,503.139245,15.712139,48.497826,4.328026,0
7.121458,204.164139,20574.364258,7.089146,333.775777,353.927593,16.488156,57.022783,3.774601,0
9.418296,173.640216,8777.686784,8.456178,358.292064,596.825837,16.785215,105.272456,4.604633,0
7.457165,263.036704,31085.083433,1.683993,333.775777,584.604354,11.809444,45.501362,4.106543,0
5.272228,206.313185,42210.885237,8.849717,333.775777,410.648537,11.927999,46.540368,5.068556,0
7.291957,202.329044,21891.677159,7.628747,339.829014,379.270122,7.654956,64.021523,4.237644,0
7.803833,223.688111,37376.792989,6.664969,333.775777,343.764013,16.697408,74.782434,2.907387,0
6.844351,197.460469,23608.862239,8.396405,333.775777,526.425915,10.878096,62.037143,2.877063,0
5.608745,152.954062,19835.98077,9.345981,323.39334,596.076368,14.380725,49.428252,4.644212,0
5.701155,233.515043,41411.601707,5.895464,310.160545,509.767888,22.686837,73.751883,3.403136,0
5.412762,226.586488,45510.584319,7.070185,307.621462,420.124761,21.94019,58.851736,4.091206,0
7.080795,208.177464,17264.840917,3.296157,387.070824,631.304216,8.40457,68.30059,3.912148,0
5.018132,169.397238,29072.038121,10.711475,297.013272,467.218073,15.913761,23.79295,4.286479,0
4.552238,197.076934,25969.21512,8.865422,333.775777,461.836278,12.853405,69.335057,3.932804,0
7.080795,203.505921,21417.593615,6.072638,319.522689,348.527321,12.612966,68.642545,4.613579,0
7.025306,202.809081,23502.857795,5.239013,335.548719,471.131716,13.891519,63.751855,5.989543,0
5.770621,194.500144,16173.727093,6.341797,318.788933,387.130483,12.042914,52.512261,4.240821,0
8.437876,183.106625,12856.928695,7.400019,361.779682,587.022609,15.926921,77.951262,3.815469,0
5.907078,213.471081,41839.456449,7.924762,312.329947,357.25897,15.598965,54.421879,4.29648,0
6.898341,187.415306,19024.485531,6.91507,333.775777,428.786976,12.580162,44.38021,5.371284,0
10.252734,217.736669,9651.874826,4.338353,369.297709,528.121626,18.661403,54.15045,3.290372,0
8.2065,182.905359,18949.975539,6.662949,347.132562,332.855321,18.328401,66.688384,4.225121,0
7.286167,208.444085,30879.026684,6.856967,336.048832,352.602146,10.566452,64.025333,4.68602,0
8.809296,226.105901,18140.594271,4.930381,320.799382,350.116686,14.33884,64.334637,3.879054,0
6.641501,198.884409,27867.486757,7.327729,318.408397,573.723762,13.19172,81.551114,4.694311,0
6.145148,197.541072,39657.272108,9.900159,288.157883,319.434033,11.587378,120.030077,4.600886,0
5.906442,177.891369,27296.294045,8.869268,312.015798,385.812818,13.938686,60.613795,4.807496,0
5.389846,163.344352,19646.233419,9.092721,314.237577,491.750448,15.496325,48.686584,3.577675,0
5.006563,160.496448,27218.821976,11.54319,289.975777,303.256343,16.569391,70.699066,3.665206,0
6.503638,163.256634,15000.187769,7.641834,334.10312,517.428392,17.53066,37.765518,4.963184,0
9.606859,200.842143,18907.642841,7.515087,333.775777,370.903807,11.358735,64.371183,4.405352,0
8.74223,179.409804,9694.354896,6.577128,368.504321,323.744012,13.92501,85.779324,2.842393,0
8.394397,187.643411,10603.098021,7.840261,352.83564,376.241146,13.374831,58.950002,2.833901,0
7.080795,204.923829,12556.754047,5.789008,359.951766,610.767576,16.012643,52.442326,3.257744,0
3.841205,186.917765,19988.649262,7.174952,333.775777,483.334209,13.422802,74.381701,3.635635,0
4.301373,148.737701,26640.072188,9.242653,316.764406,365.835375,12.515734,54.082289,3.067627,0
9.895889,210.654041,13189.519383,4.945128,333.775777,481.136793,11.763453,49.851928,3.813429,0
4.319441,186.056179,30565.578391,9.811168,276.833932,282.687402,13.448689,66.396293,3.241972,0
8.313774,196.547696,11310.958313,5.310815,364.405067,607.915848,8.457142,76.69458,4.290072,0
7.080795,179.149287,4784.967879,5.702187,378.398218,517.496142,14.387224,68.687024,2.380084,0
3.41036,207.397473,49074.730407,5.667433,301.975011,351.520393,15.98737,86.639186,3.721766,0
7.510943,182.192847,17100.887433,5.948785,357.265732,499.095057,20.725806,60.670939,3.342409,0
6.978291,191.858484,26189.647064,7.279433,317.184165,564.647564,19.426893,50.50654,4.931878,0
7.080795,164.378433,15908.56187,11.208688,333.775777,360.814296,17.239577,60.179119,4.380978,0
7.460727,237.579612,25222.956004,7.277443,316.562331,377.68222,5.914617,62.044183,3.949015,0
7.080795,190.046661,18327.438429,7.898765,354.419249,445.928456,12.902213,63.45662,4.543581,0
7.220166,204.768391,15658.08628,3.842732,333.775777,407.375047,15.150582,64.989116,4.398685,0
8.790851,187.439812,7850.641892,6.359942,333.775777,384.920771,16.722376,77.902673,3.480272,0
7.080795,198.234408,26486.18144,6.472958,333.775777,472.693725,11.03224,63.729795,4.148611,0
7.080795,219.013328,29433.423784,9.384056,302.767347,426.43072,17.307476,70.060303,5.776611,0
9.049166,169.509254,4343.356611,5.780823,386.700463,471.925377,16.170628,62.722085,2.814001,0
9.515141,199.081317,9082.816175,5.97655,367.230792,501.446834,12.877123,55.77069,3.812888,0
6.145243,213.175589,20417.264416,6.243743,333.775777,435.376529,23.514774,81.299133,4.09094,0
7.494212,210.347276,29252.501112,5.922704,339.846577,445.061231,16.917113,84.868548,5.492705,0
7.091886,221.191476,29091.207101,5.13496,333.775777,515.059986,19.578273,62.62733,5.116407,0
6.624573,172.055471,14877.289737,7.079934,338.441277,405.818097,15.656149,58.560531,4.333721,0
6.032189,200.420756,32882.155943,6.516519,352.018638,349.982173,14.104821,43.376808,3.423832,0
6.344095,164.817207,14973.297357,10.707016,316.14445,337.219448,19.411699,64.38497,3.843484,0
7.080795,209.766022,27382.769331,7.432312,323.955632,301.202885,13.970732,62.738594,4.103439,0
7.459145,217.70013,19436.503542,4.639116,352.424439,494.094339,14.460295,57.196188,3.841052,0
6.361667,175.043999,25833.851713,8.243781,333.947107,302.19071,10.558576,70.107693,3.681765,0
9.011589,228.919519,25208.151842,6.76701,333.775777,380.145205,15.518323,66.396293,2.897293,0
7.466213,223.184181,18261.694942,5.206597,333.775777,456.262151,14.023547,99.130336,2.081846,0
5.739816,189.827789,15825.440316,8.11014,313.057332,425.016757,14.899181,81.373907,2.722571,0
7.785107,174.889361,13404.254332,7.517806,333.775777,491.431722,13.825548,75.059426,4.904613,0
7.138587,180.903778,9727.65317,5.706429,333.775777,399.954833,15.952393,67.702849,3.27243,0
8.805178,157.231982,4728.650671,8.848262,356.773638,299.279775,9.439925,61.640597,5.176205,0
8.003031,186.463082,15007.272682,7.697324,355.726006,561.613187,10.153233,67.000351,3.137551,0
7.157338,214.010101,23718.552011,3.924367,343.764377,506.899657,15.446049,66.396293,5.183622,0
6.427365,202.944979,20920.251561,5.527621,338.582354,332.612752,12.809024,75.101334,3.568823,0
6.124672,179.579752,27951.61307,8.075627,303.646928,467.171822,13.835117,69.017488,3.631007,0
8.457901,228.732152,16061.590098,4.142485,356.304825,370.712108,14.06171,82.364692,4.914276,0
5.772197,200.144971,27840.69421,7.13224,318.643491,414.015043,15.550101,62.521274,3.078986,0
7.080795,220.976049,11562.43551,6.033392,359.186901,406.466385,14.149317,59.373218,4.589162,0
6.760791,192.142621,19089.948557,4.364521,345.018897,457.554827,13.272526,66.396293,4.90549,0
7.895046,174.692685,10465.261601,7.668315,350.535418,472.042912,14.633909,60.862234,3.084431,0
8.57674,221.150258,24897.286602,6.222626,341.80921,389.292785,15.952132,36.082583,3.916115,0
5.59673,229.295098,44652.363872,6.500953,323.999049,424.257013,12.361827,40.412098,3.826158,0
8.145632,218.440804,31350.275765,5.50765,334.644887,376.669878,14.886305,52.415775,4.307548,0
6.665495,222.487772,25319.913867,4.970959,339.05975,318.56433,19.368698,72.716775,3.928495,0
6.499068,173.768874,23734.846211,9.009056,330.164682,593.561756,13.986294,63.693876,4.35588,0
9.735889,209.761513,10897.150289,6.106567,358.193121,449.36779,13.911645,47.100186,5.57321,0
9.268282,204.360485,14333.538024,9.070126,328.297947,431.475412,11.934802,90.9018,5.255703,0
7.080795,180.893036,17705.608616,6.223312,350.195253,447.937123,10.461025,32.074863,3.999125,0
10.059642,175.875828,5232.913254,9.674175,333.775777,477.983756,16.470528,62.604551,3.818789,0
6.475885,177.294949,16532.828822,10.096588,305.248945,466.64942,6.776146,65.14649,4.306113,0
6.096128,200.646224,16932.577103,6.542206,333.775777,404.460052,9.063964,84.057101,2.956447,0
6.297846,214.214574,21022.83503,7.258722,331.821977,434.048702,15.872182,64.846905,1.680554,0
5.284097,185.705492,26532.737255,6.132546,328.139582,543.181748,17.398465,47.066392,4.800963,0
8.269945,192.003776,11889.217747,8.377233,345.987354,405.340609,17.395662,85.444985,3.07648,0
6.039568,246.692855,39489.009736,3.194969,333.775777,357.986313,13.239356,78.404534,4.206836,0
6.243279,171.103886,19605.029575,8.268229,333.775777,512.894717,17.218417,53.609727,3.472839,0
8.2141,192.177127,12819.875436,7.536023,343.477262,418.678765,13.352604,86.978101,3.381864,0
7.080795,205.63879,39742.970329,4.660528,323.956492,509.546419,11.67485,55.042679,3.916746,0
7.080795,233.020134,27071.118618,6.220936,298.112645,357.119622,16.768945,51.284401,4.284879,0
7.080795,220.552524,28135.076838,7.978098,307.652451,421.464253,17.532298,86.848098,3.56957,0
9.836031,230.471922,16103.360549,5.599314,333.775777,300.062487,14.383718,61.939297,4.219118,0
8.719764,219.778898,30681.120258,7.268765,340.91849,481.853415,9.151209,50.178596,2.887725,0
7.009602,220.561996,18628.696825,6.78168,333.775777,397.996103,14.808674,77.763534,3.121945,0
6.492639,172.86396,14625.561363,7.73657,349.404057,652.537592,10.212058,56.949724,4.66777,0
7.814524,180.347308,17516.699362,7.489006,352.277029,370.011373,14.28932,80.882425,2.9017,0
9.652563,205.206059,8508.15373,4.945417,386.541185,392.767453,12.446539,53.898037,3.19257,0
8.007541,151.736322,8864.68648,11.251507,333.775777,447.484361,12.412691,66.396293,5.250173,0
7.080795,170.550088,17561.272836,8.32021,349.291954,374.463848,10.989146,73.701449,3.716659,0
7.080795,204.734998,33798.108956,6.578161,333.775777,426.080522,13.940221,69.051662,3.845127,0
7.386838,189.595814,29122.696997,8.420763,321.567764,458.044171,17.196943,56.769915,4.816705,0
5.49758,204.68287,29493.422967,7.60413,323.608786,476.844459,16.672415,83.413838,5.060115,0
6.057828,230.717693,44868.458368,6.443392,333.775777,397.236784,14.037903,76.701609,3.292249,0
7.080795,222.821213,23879.226757,5.082357,333.775777,382.757966,15.856062,66.270477,4.235174,0
6.268953,185.706647,24769.511394,6.717666,318.227942,534.540837,13.628865,69.13922,4.674496,0
7.080795,190.929256,20661.411063,10.175484,299.345576,471.06264,9.225985,60.023523,4.96915,0
6.284985,196.775056,29213.620386,8.528793,334.477795,574.540671,11.095893,66.396293,5.703288,0
9.043096,181.566663,8273.591971,6.701042,333.775777,372.551219,9.762361,65.216338,4.008499,0
8.523062,201.608493,24207.298027,7.220716,333.775777,436.62599,15.740639,63.310503,5.112376,0
7.080795,183.464853,19998.859019,7.151889,337.539533,294.846802,10.088668,66.299162,4.18332,0
7.080795,193.400268,30630.759939,6.873568,342.19324,430.3956,17.446818,49.883653,2.913048,0
4.029053,203.386857,42327.168016,8.550483,279.675256,503.732428,13.758836,46.384064,4.179656,0
6.412707,204.358097,32333.841542,5.204084,345.7175,389.215295,11.14504,91.204867,5.014145,0
6.276295,184.952057,28653.472342,6.519435,335.257777,470.429676,11.198483,66.396293,4.342759,0
7.648878,188.506977,22510.97507,8.617208,333.775777,393.293539,12.854519,73.313503,4.953534,0
5.548182,204.259899,39997.783697,7.027226,319.202935,431.972429,15.400396,41.952292,3.94546,0
7.080795,216.675619,17870.315246,6.613387,338.415939,438.132104,15.44149,83.272736,2.60496,0
7.468617,240.345305,36701.974347,4.536413,339.221351,453.211366,16.106515,67.952496,3.384179,0
7.080795,179.149447,21051.365376,8.887846,296.94907,418.269806,18.800516,92.096,3.764704,0
7.91815,214.186611,23823.492888,7.290878,341.173322,411.424483,19.585002,25.057375,4.028958,0
7.080795,191.764256,10830.801245,6.362889,333.775777,492.200309,17.291645,43.272545,4.266775,0
7.080795,181.374651,14579.822073,5.435058,333.775777,308.792515,9.545092,60.214647,4.161749,0
5.433242,201.781246,31157.110167,7.286392,304.425275,451.557178,10.842095,87.634013,3.675718,0
8.339512,202.201624,21295.749879,5.618116,333.775777,428.950329,15.491387,81.315327,4.827704,0
6.715719,195.190599,19966.744697,7.744696,354.208923,411.795503,17.323081,67.981741,2.443008,0
6.098012,211.45401,39352.775838,6.212191,333.775777,488.141313,11.79184,46.928041,4.590617,0
6.576845,156.221768,12772.09575,9.759898,341.749378,418.972467,10.382253,78.30518,3.771314,0
4.681099,220.476126,38748.411346,4.652514,306.45119,442.530508,10.94127,66.396293,4.12575,0
8.151215,219.56005,13699.680708,3.804428,333.775777,460.528736,14.951295,79.634261,3.523981,0
7.080795,226.548354,13584.490338,4.190696,374.157621,335.378212,9.147436,82.864929,2.364559,0
7.080795,220.836035,27319.56903,4.507102,329.997188,463.965168,13.986735,66.396293,5.666547,0
5.66969,194.130069,20081.537954,6.778104,333.775777,403.98992,18.284807,66.396293,3.592133,0
6.624944,185.410933,16360.566298,9.472845,320.846507,458.923977,12.488007,40.959974,3.546696,0
8.273644,188.160751,11120.701046,7.410891,346.319774,344.154965,15.314879,89.44685,3.331584,0
7.080795,241.895515,25717.936178,4.239997,369.541143,474.93747,15.306063,48.374212,4.306218,0
7.080795,221.620058,11954.70073,6.657053,333.775777,391.238714,12.961433,66.396293,3.282061,0
10.509669,213.876873,16786.925406,6.62422,333.775777,411.216978,16.590932,67.745515,3.505079,0
5.171434,207.280531,44612.751358,7.287925,300.254258,552.90759,12.723725,52.237736,2.949432,0
6.964198,193.75328,27408.499332,10.184605,307.694522,302.940433,15.88965,78.076738,2.395683,0
6.548797,205.168161,13584.900245,3.777648,333.775777,327.967343,15.627514,51.850366,4.197305,0
6.555439,195.157976,15405.496481,2.750837,333.775777,436.278076,10.855263,66.396293,3.79204,0
9.042583,221.320184,14149.499829,5.325853,366.668408,377.857959,13.008443,87.896166,4.34844,0
5.970579,202.74552,19952.30947,7.872038,311.188185,412.038922,18.632142,73.166338,5.013281,0
6.273806,191.850396,15130.154368,5.112751,349.94953,538.203713,12.383597,52.097687,4.510405,0
6.604008,212.978467,23564.579663,6.608205,325.35386,430.332754,14.352905,33.403048,4.458967,0
7.143942,153.236364,11553.039281,8.444687,329.404457,278.483266,11.266886,81.718413,3.79284,0
8.116447,208.689153,23985.864422,7.51387,346.423787,436.290552,9.612293,67.381157,2.934697,0
7.665188,209.997246,22993.72935,5.543901,343.49422,417.738988,7.750607,63.551822,2.707129,0
5.555353,154.300684,20503.430055,9.644997,313.470297,355.206968,18.46869,75.140362,4.536146,0
7.543931,192.234541,24227.961139,7.241343,336.15105,369.427699,18.188873,70.588507,3.703191,1
7.080795,218.573548,11724.623315,7.565407,296.43054,452.727691,14.665704,51.261827,3.561398,1
7.340171,210.118813,12810.42316,8.867294,309.661578,412.706558,12.389229,73.513321,3.91914,1
10.015189,210.126717,9064.035831,7.198432,363.56182,324.647909,10.213058,92.643892,3.846548,1
7.080795,188.743562,19037.462638,6.034236,333.775777,388.065857,15.149068,78.499418,2.723651,1
7.846463,233.976579,6670.659354,6.844526,333.775777,545.310659,16.536216,67.48409,3.885624,1
7.080795,155.675777,52060.2268,2.577555,365.080963,323.001036,14.166602,48.254307,2.000757,1
6.334163,197.482326,23460.821381,6.121464,303.550324,399.563786,18.822216,62.222875,4.03883,1
9.616096,221.759818,12538.974026,9.089531,333.775777,441.881005,13.808375,66.396293,2.946644,1
7.080795,186.595255,29496.910157,8.117748,378.430501,616.175243,14.96278,65.444563,2.475284,1
8.892998,224.078183,22960.180644,8.982036,274.689459,466.24548,9.693049,59.577212,3.619133,1
7.080795,195.836573,14563.682649,9.315977,333.775777,289.660586,9.184401,49.54012,3.957012,1
8.14143,211.794267,15494.359837,9.450414,333.775777,363.129353,15.40339,54.490733,4.350922,1
8.165715,203.419331,16925.012297,5.574342,337.252325,527.912544,18.361436,60.393548,3.920116,1
4.931958,164.666769,31155.540218,7.411483,383.782626,506.531414,14.980034,69.249229,5.045983,1
8.977822,198.996287,20225.642923,7.569518,352.685843,492.097825,19.621923,64.177232,3.2,1
7.372612,220.387164,17606.885689,9.426339,274.206804,551.145207,14.826441,67.305421,3.182521,1
9.10733,202.514711,24678.329289,5.575906,334.717335,467.110762,12.937329,46.935252,4.49214,1
4.168248,164.351289,23863.716864,8.593819,333.775777,547.466831,13.843494,71.046735,2.804525,1
7.806909,216.473169,21299.318657,6.217597,333.775777,524.079706,13.895631,83.146999,5.127911,1
6.704635,230.76694,9727.761716,5.943695,223.235816,405.761571,12.826509,74.385199,3.422179,1
3.623166,156.898917,26738.525361,5.023143,388.752253,388.75262,17.196012,63.56487,5.370206,1
7.966857,186.353361,21440.738848,7.832474,393.767046,461.356227,13.91387,86.121811,5.115431,1
4.595608,204.85966,13891.03853,6.371345,333.775777,631.822078,11.42091,70.449003,3.97892,1
7.080795,204.669047,12874.444637,5.071164,324.701293,402.619286,16.64248,64.846749,4.058942,1
3.994498,179.454192,18682.277139,6.464793,331.145621,538.174959,13.91682,66.396293,3.379147,1
8.907987,202.461211,33653.761963,5.431879,330.827133,426.186565,18.759902,79.370621,4.641259,1
5.898726,198.31002,21148.241905,9.1249,326.254282,312.388586,13.042948,74.311619,4.899815,1
9.514627,215.725527,16553.562437,7.547859,321.776213,453.91849,9.640241,57.865423,2.645036,1
8.842464,229.964422,7839.31876,10.50881,278.428265,370.085153,15.790977,77.166619,4.576729,1
7.721078,208.438593,17248.618742,7.68537,286.403522,269.013635,11.757348,56.884528,3.223951,1
9.089421,208.91472,32238.077782,6.895014,321.080465,449.259976,12.514641,89.213074,4.430116,1
1.757037,147.581831,41538.24273,7.728177,376.012933,428.444823,10.828696,65.00584,2.967554,1
7.725192,213.951328,20461.759043,5.340319,333.775777,338.214258,17.032466,58.587459,4.163326,1
6.729191,178.493632,31991.958747,5.63294,333.775777,341.774778,14.805198,64.129155,5.112254,1
5.085429,173.565971,33455.240995,6.033247,351.271267,507.476249,17.795957,62.466135,3.961731,1
9.545271,212.046391,25189.830622,6.203869,316.567319,498.266959,20.051519,52.901127,4.983903,1
7.080795,182.533978,20049.242099,8.480468,330.127869,328.700961,12.332288,79.78478,3.693511,1
6.246264,163.218038,26408.881768,6.02967,429.022312,509.956864,23.569645,19.175175,5.044455,1
7.376449,168.750007,37191.114141,4.184943,333.775777,439.312853,15.900985,63.334895,5.767355,1
7.802426,232.67028,14382.902158,7.626923,333.775777,413.292183,15.495603,42.002082,4.36353,1
8.596767,202.343187,15173.47115,7.248625,373.653328,315.47907,15.008674,76.879669,3.238693,1
6.436444,192.995665,19579.389546,7.640874,314.922739,379.675367,12.897049,75.839132,3.415851,1
7.333478,233.721355,16066.552124,8.181988,224.212503,401.739309,15.313978,81.842062,4.772663,1
6.144759,210.979747,19981.315188,9.203614,271.097104,332.598126,17.187963,79.634242,3.08208,1
4.725998,175.991487,34265.830581,5.923396,324.870724,441.945181,12.636086,66.396293,3.644607,1
5.393346,172.550261,28099.038729,5.789669,372.621943,505.542349,17.530704,67.273874,4.633855,1
5.62482,215.822873,9028.760345,9.256098,274.292305,340.648393,10.680673,72.48745,4.355489,1
5.768868,184.395003,31155.98882,8.392834,356.552697,380.09681,10.43034,100.231668,3.092626,1
7.080795,195.874634,17749.298664,7.55675,333.775777,512.454468,15.485276,54.132658,2.775635,1
5.251354,167.924336,34768.93342,4.023081,377.143489,315.536105,10.429159,70.593387,4.072252,1
7.688786,209.185625,29568.535852,9.817336,294.347732,355.698613,13.918769,71.68154,3.918673,1
3.681076,144.26527,26726.771113,6.095283,333.775777,564.183824,13.651105,92.299101,3.89307,1
4.897692,169.235768,14676.716272,8.318607,333.775777,437.538692,16.219141,81.947806,3.894464,1
5.842755,202.044775,13969.261562,6.643918,290.795955,475.142956,18.189839,77.931104,4.490393,1
7.080795,193.410141,14472.391549,5.640672,322.674462,431.457337,12.721922,92.758852,4.414819,1
5.038317,170.360463,25866.103949,7.40375,333.775777,350.391024,13.270279,65.331633,3.913696,1
9.961248,220.038186,11939.769859,8.428754,337.48361,398.680936,14.792585,60.991843,3.246583,1
7.417503,198.705653,24389.362885,4.790681,289.331358,366.370724,18.41518,87.996223,3.391241,1
7.080795,160.325972,37795.763318,9.152225,390.276608,441.986106,16.45099,21.355275,4.44198,1
5.099932,189.665937,21807.400131,4.368152,333.775777,334.512306,14.732291,49.985679,5.159301,1
3.633163,179.350577,28584.17581,5.246382,292.440536,500.866018,8.956401,77.360985,3.349572,1
8.860451,193.743105,24085.11214,6.18311,333.775777,526.704924,9.901328,81.33934,4.677713,1
10.137932,242.005716,15088.827653,8.677789,333.775777,596.346346,14.971199,62.365824,3.872018,1
9.900815,199.083752,16233.134679,8.146643,380.11303,345.019852,20.38672,73.381488,2.395002,1
10.268431,218.216682,13753.993373,7.512608,334.178075,341.602209,15.671564,84.68266,4.304689,1
0.227499,152.530111,39028.59934,3.462492,283.693782,443.029232,13.201943,62.322711,3.545741,1
6.017261,206.0144,15157.268787,7.582124,307.704474,431.781987,14.221757,53.319977,4.427712,1
7.110845,213.886337,25043.532803,6.048437,245.954253,505.735535,16.38314,91.681026,5.712792,1
6.35029,190.383738,14905.393852,5.53783,333.775777,446.840605,13.983567,67.817096,4.265233,1
8.129342,211.123312,22982.927445,6.779005,326.397953,367.988784,13.910933,55.795357,4.822044,1
10.252816,218.2797,18158.842119,8.657342,349.529568,336.198837,19.442599,82.858272,4.559836,1
5.462356,187.709533,11642.148999,8.439641,333.775777,534.663945,8.129793,74.603713,4.48618,1
9.23944,212.569076,14829.624212,7.17292,324.128915,575.421968,16.58112,66.88527,3.471971,1
7.071314,213.619625,20038.796417,7.602252,290.057219,605.305041,8.713964,58.41346,4.293727,1
7.115895,193.706745,18463.883662,4.924389,319.056951,369.534034,14.84158,54.437494,3.736021,1
8.238997,199.594539,25046.79864,9.28802,350.835986,328.363398,18.743231,54.416965,3.089924,1
6.446252,204.253563,11104.250508,7.648613,333.775777,418.04122,16.625627,66.396293,4.976958,1
6.161779,202.756973,12229.647584,11.523598,324.048035,344.365689,14.685927,47.803194,4.003547,1
6.772157,196.900098,13790.296202,9.575053,333.775777,347.588375,17.705727,68.379815,3.827256,1
7.061846,211.091687,11300.238109,8.866359,299.938071,353.510425,16.895754,67.577109,3.958249,1
4.63825,182.419621,34261.985889,6.197716,307.458454,439.117705,7.760853,66.396293,4.124538,1
7.678967,205.479918,7472.50648,7.181869,333.775777,395.235784,7.91815,76.378309,3.718982,1
8.137713,178.716633,33786.716309,9.101885,333.775777,481.073539,12.273181,95.905288,2.743867,1
7.481398,186.074765,13781.780284,4.649254,377.344372,323.772843,11.687124,66.29165,4.039976,1
8.082148,185.932419,28407.661026,7.605421,381.761884,402.658022,12.830646,86.979724,3.373485,1
7.080795,210.627359,27983.179422,5.947213,333.775777,436.844053,16.127527,64.564044,4.290393,1
7.702183,192.137531,18126.030963,9.154581,364.191227,646.732599,14.376337,90.527536,4.382159,1
6.750761,207.254505,23642.992597,7.691012,293.78304,446.696939,6.000391,30.900815,2.777726,1
7.080795,219.706048,22387.315753,7.308501,316.973003,327.289543,12.785265,80.757866,4.649365,1
6.323942,185.992411,23234.788934,5.892963,347.236827,401.304895,13.263282,60.474031,3.575011,1
5.403884,199.016674,11571.421537,6.285434,333.775777,377.430746,11.859074,74.012043,3.189942,1
5.699873,159.435601,31977.370137,5.249974,333.775777,501.743218,8.008011,55.870245,2.416402,1
7.694265,184.836301,22673.034472,5.701063,333.775777,439.633027,8.857706,64.975574,5.707193,1
8.581429,186.601621,20590.712114,3.924183,366.1319,384.305698,9.999398,66.693973,3.388448,1
9.888941,220.638823,19892.388914,7.986456,326.07656,460.812425,14.929172,59.602808,3.750164,1
3.42645,154.711724,21839.695956,4.965722,333.775777,437.377181,14.689351,56.490077,5.978054,1
8.37044,231.442553,15063.814968,12.279374,333.775777,422.293819,15.027088,67.503004,3.210635,1
7.080795,204.852187,13286.156575,9.093843,332.845544,365.68752,8.589896,76.306376,4.268525,1
8.390501,215.295518,27032.142262,6.553958,282.859453,443.44559,12.841611,46.368219,4.150359,1
7.581945,193.286463,21675.682866,9.821499,381.930744,414.810985,16.109169,92.609084,4.833346,1
9.850055,208.740232,35289.23711,8.35011,337.209742,462.480199,10.105146,50.886006,4.521836,1
5.225684,185.050444,16276.398604,6.617098,333.775777,394.634868,7.817812,89.052588,3.695747,1
9.663653,233.487268,13213.578254,10.149937,293.074657,326.777803,10.439619,62.455373,4.741944,1
7.080795,158.762959,26210.116012,4.088763,333.775777,354.847053,16.006711,85.338053,5.010163,1
7.935607,207.016852,19657.843315,8.604505,312.343607,358.849003,21.228127,63.771833,3.619651,1
8.928142,197.64853,27884.434252,8.968576,333.775777,317.53268,21.497866,73.011132,4.111102,1
6.920343,207.821363,16689.799604,10.031146,286.413862,481.955877,9.771896,78.295022,3.266213,1
10.538098,200.139829,13867.244196,7.365015,409.44673,340.808823,17.073123,72.730639,3.823093,1
5.729303,162.857585,34573.678786,5.654856,415.287072,297.631365,13.990842,76.744677,3.556395,1
5.335689,178.640119,37993.182755,9.772522,343.258359,465.072796,14.834257,65.326531,3.921976,1
7.080795,177.174021,38977.330798,5.477161,402.499393,484.172953,12.300107,61.569477,3.261592,1
6.769835,177.173258,34596.001872,2.866073,369.532996,389.516286,17.268074,64.868608,3.65579,1
6.84833,195.451482,15908.642086,6.241349,319.264722,404.204859,18.937338,75.392795,3.732202,1
7.080795,231.159824,12856.728623,6.977019,344.447737,392.516902,13.217223,80.956458,3.308294,1
7.080795,205.088789,27064.418409,7.398379,304.926475,409.501842,18.521792,61.486105,4.599573,1
7.080795,155.864382,28224.774178,8.366723,392.582582,421.343736,18.778696,52.640594,4.93019,1
8.589202,233.727975,7263.056749,6.953308,268.971355,258.880209,8.986363,41.930439,4.041446,1
8.473649,182.997199,36412.48826,6.144666,333.775777,414.308055,14.255356,56.735187,3.487816,1
7.591346,199.255322,25383.765183,7.924616,318.610478,416.445617,20.118827,48.27121,4.51515,1
8.137768,203.861867,24172.703313,6.844018,305.83258,470.836265,19.232961,30.708421,5.003826,1
5.352566,150.495214,27795.732041,5.464058,445.938391,422.422509,16.14451,78.374845,4.779187,1
7.99809,241.000277,9609.740605,9.842346,229.575561,428.882366,14.990567,39.842379,2.626547,1
11.898078,228.132673,8296.550611,9.899637,346.64975,500.16921,15.486862,63.52946,3.024968,1
7.442536,180.859091,18223.02708,8.57725,405.320016,564.793485,14.768337,57.757554,2.191138,1
5.140801,209.358561,21407.614287,4.415976,230.555856,378.89719,2.2,86.737223,4.192257,1
7.080795,242.413429,9783.368727,6.400152,211.851592,351.99736,10.407257,69.909491,4.626701,1
6.947916,219.594385,10337.541703,10.414781,333.775777,453.151938,14.213799,61.150299,3.685079,1
9.622106,182.909728,30307.217675,5.657004,422.445681,573.330497,17.699718,45.906782,3.975572,1
5.361212,171.315543,24709.728858,4.184891,366.814979,490.658747,15.122672,33.119613,1.812529,1
4.909519,186.190703,13652.60203,9.318248,333.775777,460.566722,12.159457,89.830209,3.785507,1
6.376408,182.121038,33046.727606,5.351533,362.352143,350.236326,7.592516,66.225674,5.404046,1
3.940125,163.171653,25911.32168,4.13854,371.96718,487.985185,17.751705,63.612403,3.478005,1
6.916826,210.860439,29263.554069,6.011611,252.23133,392.363586,12.89221,77.07978,4.598622,1
9.146558,226.093425,6787.48466,9.241763,319.025809,459.569021,14.110476,80.571146,3.210882,1
10.268415,225.074218,14694.420625,6.722843,300.763772,353.630913,13.553796,64.012944,5.199865,1
8.787668,232.462637,7035.133797,9.306449,333.775777,415.624882,12.051417,66.396293,3.489946,1
7.368769,213.197019,18452.022995,8.292445,294.344858,496.270851,10.545092,94.837743,3.813881,1
9.35272,207.46516,23558.554746,6.504916,346.516535,420.594592,10.986683,66.396293,3.398264,1
9.393148,215.051365,20592.258942,10.089537,331.338739,447.07446,10.778633,54.426968,4.665681,1
7.296573,197.646951,22535.085158,9.2882,323.449054,353.062907,6.039669,82.536173,4.679169,1
8.900865,211.306812,9592.151333,8.863272,348.43782,333.775327,18.267951,68.33317,4.518751,1
8.107244,228.171859,18364.831418,6.185948,246.942611,369.903199,14.613423,101.351525,4.688271,1
7.804369,216.673869,14160.686766,6.060144,281.355975,468.212537,15.147547,62.860627,4.075557,1
4.666148,171.2887,35680.067877,4.894374,314.613851,501.902864,14.210624,56.910254,4.556864,1
10.905076,207.004837,16099.151896,8.186479,369.683867,575.309037,17.55688,80.749849,3.720264,1
4.739549,162.246886,27215.902742,2.862535,372.815075,437.21759,15.130476,65.091291,2.942348,1
9.869232,223.772661,29549.658823,7.716923,281.11849,356.181916,14.202664,84.013585,4.73685,1
7.080795,182.582228,19575.475363,10.048383,424.688994,383.490954,19.482945,76.634798,4.329204,1
5.827541,191.00493,25863.343245,4.823832,316.025513,370.357288,18.361858,48.658109,3.179129,1
0.989912,133.216942,16922.853899,9.293289,444.375731,322.291191,10.430076,43.578466,5.160604,1
7.080795,235.240587,10443.796534,7.605519,333.775777,319.84293,8.28655,80.540351,3.900509,1
9.485833,218.738236,15357.833373,8.534458,315.831396,429.622212,15.621139,64.826028,3.22113,1
6.435723,214.724669,9363.853988,9.997624,273.463139,508.345207,12.92587,71.42859,4.925339,1
6.365497,205.056536,7040.737621,11.302831,325.328543,371.579634,16.352858,74.312592,5.125417,1
7.080795,202.475162,23828.207682,5.531685,409.28621,414.617655,13.797656,59.521664,5.266368,1
5.452215,199.228468,14446.81239,7.689191,298.318418,469.131951,14.020507,95.306239,5.190534,1
7.080795,215.966579,21852.437944,7.457515,283.755824,364.701095,11.38321,76.538803,5.076362,1
5.433466,177.828302,31421.731633,4.584134,347.097354,490.284674,16.066439,58.416699,2.871196,1
7.374775,217.698644,12285.891483,10.038245,333.775777,358.983254,16.293716,93.78438,3.592265,1
7.080795,175.708553,25954.031764,6.229322,346.225062,379.290646,13.63691,50.590765,2.951396,0
5.226942,177.319603,28398.554196,6.294517,336.292918,328.38743,18.463095,62.075902,2.25955,0
4.594209,185.632858,27981.09119,6.761683,354.785217,380.723252,13.983833,74.576914,4.91791,0
6.784133,212.442338,12827.621007,7.403642,333.775777,328.033576,10.861775,89.577036,5.035823,0
6.400256,172.299,15936.24736,4.935998,340.39293,435.40561,11.075622,58.365995,4.561494,0
6.839416,166.86697,28508.6378,7.238829,333.775777,460.765994,11.378738,73.465133,2.854527,0
6.901863,164.723486,20442.615014,5.163931,341.537089,468.41635,10.362623,65.694878,4.047907,0
7.080795,191.554815,22462.113287,8.186258,333.775777,349.954534,17.247307,76.767797,5.260301,0
7.888844,228.488394,15824.788729,8.388944,314.843291,423.662707,17.630362,56.42021,3.630524,0
5.527633,218.518923,22095.637164,6.436288,333.775777,412.86761,12.640135,44.328641,4.591137,0
6.492403,234.914512,18607.213193,8.620697,302.131306,442.104208,14.116824,65.636759,4.383395,0
6.6847,193.840931,34157.184474,9.876574,344.535407,498.063996,8.818757,66.659352,4.03066,0
7.080795,196.334673,24108.127551,7.843144,352.623912,428.77061,10.287673,73.445934,5.034683,0
6.223678,238.084211,22423.495207,9.336774,333.775777,474.665332,14.027766,80.774275,3.919575,0
4.758648,203.537832,23603.065417,7.667128,324.084334,288.912457,18.064957,85.916666,4.405509,0
7.440825,183.362713,17259.852302,4.610245,335.626443,452.995293,9.700906,80.537065,2.496343,0
8.054886,200.943484,12642.065947,7.309822,334.442064,446.748442,14.94908,71.202038,3.514098,0
7.061831,215.946322,24991.766021,9.138391,321.47336,431.424689,12.950444,64.02559,4.299019,0
7.080795,214.737831,12666.005325,7.092691,302.491768,319.423051,15.433834,92.693936,5.005879,0
7.61161,222.252269,25063.683013,8.561124,287.948123,505.265483,18.273757,68.395413,2.873261,0
4.691438,200.889406,32182.262318,8.57165,364.746786,516.851623,12.404439,85.026227,2.730792,0
8.06417,209.839333,8712.002588,8.59151,355.443721,338.848158,18.721312,106.243066,3.246077,0
4.292967,212.808645,30434.269118,8.630313,333.48254,382.922363,15.779922,39.775513,2.804924,0
7.865757,184.912917,16147.00195,7.321343,333.775777,505.912864,11.092842,88.048989,3.738618,0
9.085637,238.221968,9001.658753,9.820231,325.104847,381.346582,19.19574,98.490819,2.54402,0
6.592443,242.480473,9381.239931,7.303184,312.814395,440.601135,14.027297,70.929879,3.060827,0
7.032819,168.822395,29370.264184,5.390593,333.775777,521.780884,21.119249,58.876766,3.633373,0
8.990317,195.809028,23728.294015,7.508305,348.714613,551.54039,15.254392,75.907869,4.494544,0
8.561219,205.366831,16686.31276,8.159299,333.775777,347.840965,18.893137,68.089865,2.813889,0
6.739158,156.482759,30950.6811,6.54309,363.179624,425.288837,11.653458,70.367049,5.214484,0
7.080795,209.426837,20827.983844,6.591371,313.874684,567.604151,17.954849,40.140152,4.238253,0
6.492627,213.065385,34314.087091,9.041146,335.291926,313.254743,11.135312,70.82911,3.378778,0
6.753128,191.982995,18222.931957,3.920974,296.196618,389.742462,9.689144,92.219615,5.102517,0
5.039374,142.860598,40829.353167,7.271543,333.775777,386.803057,16.823773,52.297113,4.95742,0
8.296344,198.197051,17468.999802,8.262904,369.59074,294.325142,18.026098,44.061625,5.400811,0
5.455599,152.386735,37620.248469,5.78358,333.775777,343.417588,14.401654,41.109869,4.476349,0
7.918183,224.152005,20012.172976,9.008726,302.393605,421.890083,22.187849,72.727868,4.764194,0
5.018046,194.668167,27317.099444,6.155484,333.775777,313.477959,10.407479,85.685272,5.035154,0
6.495435,252.010903,32775.632585,8.479302,333.775777,330.045052,9.854011,80.561077,3.390471,0
7.080795,203.050244,28184.900527,7.076634,344.524179,445.700761,19.775367,53.270152,4.456104,0
8.783168,218.03284,16183.586649,7.390474,334.053885,389.021616,16.35452,47.100982,4.274137,0
7.080795,184.750698,28499.107328,6.550031,330.719549,381.501604,11.044405,62.014822,3.40327,0
8.159667,215.648216,17068.298863,8.769622,319.253201,459.541159,14.192544,60.373722,2.957195,0
7.685397,230.335708,7324.701425,7.991366,331.512533,492.850391,14.233952,74.068658,4.179187,0
7.762021,173.636742,15548.416674,5.018671,330.390976,520.640774,11.147704,87.481505,3.256301,0
7.207931,204.010347,18493.872175,5.557864,311.568227,437.512042,12.994596,31.39045,4.705562,0
6.987042,169.727116,19472.624328,5.017698,366.01892,425.670964,17.314681,48.882198,4.475161,0
4.692197,221.547773,24211.63077,9.36325,307.713996,406.551667,12.618252,60.003148,4.009006,0
7.080795,219.725713,9840.78282,8.513655,309.838732,396.805652,12.428763,71.625497,3.183435,0
4.059431,200.38308,25770.006722,8.34213,333.775777,414.157826,11.084834,66.396293,4.330322,0
8.389946,213.665685,17674.706149,8.348815,333.775777,471.36988,19.301248,70.829513,3.569717,0
10.695532,220.451078,10571.770377,6.521422,295.976094,414.256086,14.774801,58.735933,4.154845,0
6.791697,175.894346,21467.950866,7.101224,349.492177,427.23974,12.556983,55.253912,2.817391,0
9.953952,232.949002,3773.281147,9.97985,333.775777,339.883029,18.34359,82.449002,4.052905,0
7.080795,218.986406,9836.401847,7.064672,328.724289,386.345247,15.547964,57.328116,3.837257,0
4.489784,188.251939,14906.047922,8.48603,374.226926,518.585253,11.226578,65.182759,3.776226,0
8.020869,175.873676,21759.363929,7.487278,352.983112,428.660965,4.966862,72.305219,3.442121,0
5.090035,174.266357,34094.057177,6.741909,376.663608,526.361082,17.107563,48.546257,4.838862,0
6.466875,214.33727,14848.129489,7.054938,304.573245,304.956372,12.180826,66.396293,3.408169,0
6.702496,208.553784,29057.227617,7.029491,302.74496,361.947758,10.614582,53.879737,4.267953,0
5.766204,179.572652,27700.121945,6.198937,333.775777,536.268673,12.828121,90.006765,4.472018,0
6.571099,207.741025,23372.882654,6.280195,313.846972,497.90232,12.874805,75.41671,4.555949,0
8.50922,200.304348,10587.304929,6.392545,307.39896,585.222628,11.798991,63.827569,2.519892,0
5.953982,186.457084,32241.079614,8.439681,347.713157,416.090998,14.638927,68.907754,4.071916,0
5.403196,185.643523,27509.893425,8.257587,333.775777,587.378692,10.024039,63.3975,3.871463,0
5.59693,162.724672,23930.374549,7.456557,333.775777,535.339561,19.174739,54.966317,3.506765,0
10.63291,198.378012,12958.748457,7.135497,322.623249,522.02787,16.722195,71.776018,3.722455,0
4.916819,162.456784,22829.123212,4.024456,360.590445,541.772315,11.580141,66.396293,3.836703,0
7.183096,200.368159,13501.677965,7.982097,358.331849,617.540906,11.176548,71.536834,3.806539,0
5.923441,167.658602,25951.554036,6.296103,350.381981,471.857511,15.770464,53.321812,4.107364,0
7.377037,175.008276,15340.951839,6.144845,371.010524,579.461824,11.91574,78.179171,4.531659,0
7.833496,220.957433,28338.981461,9.370848,316.274403,462.142424,15.333005,57.033522,5.58083,0
4.745764,186.303137,33153.812976,8.840474,370.167851,296.964102,14.784314,48.451375,3.699146,0
9.055826,196.475899,20226.287945,5.838594,298.80356,342.359411,12.813634,84.279218,5.456913,0
5.492156,176.271404,26422.097889,8.072934,366.644766,500.938788,7.609798,59.396787,3.294129,0
4.487517,199.051403,36860.468899,9.751561,338.049428,390.566945,8.12347,75.668785,2.765722,0
7.027186,185.320701,30988.973019,8.600477,327.46267,326.26908,9.98201,52.716589,5.353043,0
10.200645,182.080601,8016.202938,5.567501,337.78158,291.600283,13.469924,50.567372,5.17472,0
6.784279,140.366709,17569.579819,4.084932,333.775777,374.18184,10.63423,97.08706,4.045547,0
8.080415,166.8917,18136.128859,6.867553,333.775777,600.937203,16.30779,55.586142,4.070824,0
7.080795,191.348259,14017.372066,6.4907,345.560481,423.978389,11.863248,65.791687,4.167336,0
7.344976,182.306942,5689.804405,6.76435,373.872785,360.184473,20.483902,73.488981,3.418763,0
5.92374,200.561213,33306.012538,7.430037,333.775777,399.948332,13.79787,63.463409,3.88446,0
8.285395,196.552068,19096.822369,7.357857,342.936881,388.941163,14.151473,73.187013,5.438488,0
5.949519,160.442631,16898.808297,6.045906,367.328542,451.012788,16.359951,62.368234,4.072198,0
7.080795,192.202168,34160.925144,8.963156,363.472798,474.781734,15.90527,50.807825,2.998335,0
7.080795,215.997117,35971.025113,10.030508,330.858927,558.108549,14.337804,81.769775,2.934137,0
5.296579,220.080832,39537.08646,9.232766,322.433592,393.388603,10.583336,58.801469,3.91847,0
10.282068,198.546363,8108.297322,5.548407,332.017935,568.07898,15.661692,28.770619,4.572923,0
7.016836,167.362187,18014.995703,5.903058,362.523416,471.484395,10.692588,45.002014,4.101398,0
6.871607,197.517093,19557.993724,8.311349,355.087258,379.507739,18.240712,65.69423,4.180389,0
7.080795,214.17233,8985.911807,7.297973,333.775777,498.803917,9.583323,37.616485,5.504749,0
8.274069,195.803331,18091.202615,7.422104,365.407222,369.198334,16.99633,66.396293,2.575423,0
8.238879,198.213405,11451.312217,5.30899,309.329423,401.063764,13.243329,81.19771,2.784713,0
5.791154,190.431679,20288.235569,6.298366,347.04102,544.857481,17.706838,84.388191,4.104835,0
6.153369,237.139828,22052.034619,8.090494,306.23918,485.098483,17.075263,58.108259,4.030337,0
7.303052,196.952875,22053.010262,5.392693,305.221564,451.605924,14.665561,71.710779,4.14487,0
7.592672,177.080839,14912.225506,6.041144,349.240614,355.284442,17.161966,42.115257,3.341427,0
6.784116,189.608347,12736.865001,5.935772,333.775777,480.308581,20.606409,76.621489,4.072187,0
5.606856,211.513097,32423.462685,6.812943,333.775777,446.386404,20.92695,52.218979,4.070966,0
7.080795,223.443111,36290.746112,9.380013,333.4452,373.92016,16.520496,64.696691,3.817779,0
4.922045,197.287207,38494.720246,9.144953,383.239138,357.470704,13.125942,61.86458,2.291695,0
5.700785,185.922247,27365.106363,7.5631,333.775777,359.506553,15.089441,56.463434,3.978141,0
7.080795,215.578464,25338.619342,5.787191,266.109993,429.350268,11.854461,71.165352,3.134,0
10.678056,168.695766,7066.376917,4.866092,333.775777,327.658644,16.296688,46.672483,4.308257,0
7.602121,199.353166,11346.143453,6.90038,304.966488,210.319182,17.925782,62.846673,3.698875,0
8.846282,188.415001,17734.949625,6.057868,317.150545,419.395569,17.115447,60.251578,2.925038,0
6.751699,203.400452,26325.817699,8.36547,341.895636,381.440388,19.527319,58.293945,3.756007,0
7.080795,148.103129,13597.896038,5.733148,374.018311,357.71106,13.278896,72.695499,3.619591,0
7.080795,202.079864,12519.09066,7.627524,333.775777,399.883388,12.748217,66.396293,4.439215,0
5.088213,159.962612,39125.209196,6.055623,375.619186,400.155324,20.1896,68.688694,2.600619,0
6.954907,159.766399,21895.285701,4.4939,337.267177,482.59827,10.663492,78.763592,3.169715,0
8.983812,204.648515,15158.721748,8.645882,333.775777,416.89916,14.618767,68.902945,2.445673,0
9.51966,204.080945,17258.188355,6.154073,310.716294,395.698538,17.061389,44.273379,3.994556,0
4.700393,195.352807,35216.534274,7.919083,335.279376,539.464648,9.852785,64.721331,3.481944,0
10.386133,200.891192,17982.387256,5.845502,338.999274,336.279707,14.319411,62.156686,4.921341,0
5.746529,183.471794,35633.268511,6.066386,327.55785,354.174437,12.548871,70.525972,3.808372,0
7.080795,192.97038,11125.443537,4.954923,324.758184,332.956298,15.164574,79.264575,4.699121,0
7.080795,248.954655,25253.079062,8.921733,296.821034,482.846939,14.142251,69.104012,3.941074,0
10.81129,209.10305,11848.22827,10.14106,349.923229,393.186446,15.474876,66.030317,4.416184,0
8.966836,228.691355,16764.854765,7.137871,320.555995,456.426489,12.599998,77.330137,3.654355,0
7.080795,212.449974,5699.504942,6.64784,333.052491,269.344635,18.08249,89.816057,2.276392,0
6.848805,204.812711,20555.559572,9.775004,387.686388,389.638228,12.298753,49.452046,3.130045,0
8.861702,200.612299,15247.128031,6.050225,313.127081,521.774114,13.780427,69.870484,3.579107,0
4.252985,149.938655,20497.822225,3.271144,302.819823,427.113756,16.086949,68.200877,3.5883,0
6.72983,229.407784,23114.031833,9.733356,321.160463,521.835525,13.140447,68.252067,4.724322,0
5.92454,186.620068,44376.187382,6.61418,341.637774,273.446838,12.758115,59.456691,4.224343,0
6.783888,193.653581,13677.106441,5.171454,323.728663,477.854687,15.056064,66.396293,3.250022,0
7.390897,219.335978,25574.091721,8.760434,333.775777,553.057663,17.730371,60.598432,4.325132,0
6.470152,176.736376,30594.280675,4.393138,324.659233,524.909781,16.614248,84.299703,3.125391,0
6.930391,190.189388,25780.059077,6.259353,331.030251,481.737559,14.049483,70.58636,3.699796,0
9.302441,236.580794,5230.63043,8.300402,333.775777,367.897563,12.863992,18.101222,3.675985,0
7.421998,220.385314,15772.65317,9.157615,319.912939,463.296914,16.98166,80.269354,3.60361,0
6.583065,163.361604,17977.693938,6.542088,333.775777,383.124504,18.094544,44.136469,3.772859,0
6.204429,211.640958,35439.68784,6.236836,314.131317,552.462792,8.660869,56.350096,4.106808,0
9.066628,203.384123,22710.458374,5.962837,321.585936,496.161452,18.367621,76.41651,4.055421,0
4.713117,209.342051,20070.567792,6.591109,301.965541,354.170181,14.023834,89.650788,3.923356,0
10.581386,213.776439,11298.450091,7.668897,300.184622,497.169128,17.971295,83.345304,2.966946,0
7.574261,227.984665,8672.527773,7.335362,333.775777,433.679543,11.238914,54.865889,3.686759,0
6.138785,158.422129,20129.97882,6.812143,352.229961,373.84362,13.417813,80.731097,4.67729,0
5.276324,186.38259,42063.874405,6.862988,319.837985,312.002533,18.964418,71.398976,3.883029,0
6.776879,189.438813,19663.791312,8.386404,375.457345,420.357392,14.83156,61.05042,3.322065,0
7.239416,211.872828,13911.826629,8.204071,345.043983,494.41691,15.416475,32.745611,4.531825,0
6.552279,190.547678,15362.452383,6.928597,356.317975,353.063659,14.89621,66.396293,3.443385,0
8.408766,210.795406,27662.397101,6.63421,291.687653,555.580978,12.344834,67.061824,2.372791,0
7.986399,202.09394,20447.490132,5.689518,333.775777,477.668836,12.258396,43.841692,4.814779,0
7.366915,185.043597,14151.760083,5.584369,324.570459,336.956867,15.233826,49.997034,3.051317,0
6.062738,224.841181,25842.581279,9.463391,333.775777,385.391619,13.07475,85.351214,4.369455,0
7.856471,204.783428,5619.135558,5.816703,343.545419,432.04312,14.94772,55.961613,4.534681,0
5.158396,189.295789,35086.396963,6.736118,340.871819,331.586726,12.909798,61.344664,4.645852,0
7.080795,197.570736,17439.444061,6.226491,333.775777,406.014794,16.690266,68.969018,3.45832,0
6.399081,230.027933,23037.076833,10.517848,316.072561,452.97448,13.625533,66.396293,2.620538,0
7.394256,207.963038,29917.820209,7.816294,333.775777,392.496665,13.173426,79.780438,4.263193,0
4.443851,240.167901,24070.263651,9.768406,338.052437,533.968647,11.877582,69.036523,5.038119,0
8.247148,175.91183,9913.963346,4.974506,324.433308,302.200496,11.070511,71.438165,3.941969,0
4.902159,214.643756,28278.789276,9.915647,337.137553,375.036369,15.503144,61.591036,3.499049,0
6.863136,194.586659,23610.517563,8.193416,346.768052,439.229616,14.659741,89.027196,4.319777,0
6.669532,190.751165,16246.173191,6.372975,324.341893,383.245825,7.852086,86.440561,1.964863,0
7.59567,207.11547,13486.142191,6.192663,328.209566,452.445746,14.81063,88.020365,3.403393,0
8.163076,183.161853,20335.67651,6.028559,333.084455,475.296471,18.248098,49.604842,3.287244,0
8.870278,193.369948,16854.129457,5.180106,318.354612,355.470925,19.032219,58.809199,4.182741,0
8.769676,215.368742,13969.438863,7.548543,322.79907,369.016667,18.919188,54.755214,3.776718,0
4.737391,215.529511,30684.211642,8.781905,333.775777,313.513502,11.070289,62.914421,3.853388,0
7.790875,196.478712,24061.349596,6.785685,350.117254,471.518536,15.343316,44.544627,3.076214,0
7.080795,238.409598,26493.076207,8.669944,311.553679,369.283864,11.75993,91.239299,3.241267,0
6.087306,214.556086,11628.336675,7.231927,333.775777,344.072028,13.232308,98.68662,3.666672,0
7.651294,200.717051,11699.13355,6.648273,349.255445,420.828362,18.863817,52.908851,3.258042,0
4.771491,200.374076,48002.084596,9.165239,340.310176,310.927835,18.768328,63.664155,3.936973,0
7.080795,190.630636,26913.373486,4.649166,302.417529,509.284869,16.198948,64.101951,3.452822,0
5.392058,198.017165,19900.407838,7.843226,348.951924,419.813956,14.616509,80.568252,2.978925,0
5.477283,165.436093,29046.083515,5.523011,370.893085,488.774595,17.265186,80.234797,6.357439,0
6.364156,193.506903,22958.009993,6.674635,333.775777,432.194357,16.271825,64.576851,4.764412,0
7.080795,226.765646,39942.953898,8.594715,333.775777,538.621803,13.744749,66.396293,4.863378,0
8.347949,231.203101,13533.230033,7.623604,313.671127,527.380871,18.663901,58.052866,4.217861,0
6.615982,194.980636,20919.051434,6.13637,333.775777,383.122057,9.684376,41.337775,4.635709,0
8.31238,203.744548,8727.247349,7.456302,333.775777,543.392988,15.4704,81.508682,2.988093,0
6.836225,166.742962,24293.172663,6.861235,332.881582,390.804955,16.006991,87.101925,3.666614,0
6.385471,231.488458,26756.918,8.774357,333.775777,422.067701,16.563116,73.26064,4.681717,0
6.490037,205.541517,19397.323889,7.894245,368.561073,479.786195,15.805085,56.98202,2.430883,0
7.080795,236.356975,24873.622781,9.410658,300.688417,479.056034,13.521923,46.598871,5.284233,0
6.648849,181.688122,30733.503838,5.961272,343.925222,257.704179,17.758444,35.296181,4.827527,0
7.080795,210.979747,21174.40848,7.618885,333.775777,572.743407,15.110849,90.252455,4.217553,0
9.323584,212.71067,15751.1753,5.50107,296.848512,399.773704,10.622265,74.554285,3.00665,0
4.581969,186.097915,33897.068202,6.358402,316.552791,406.382378,19.699848,62.323303,4.500208,0
7.884842,229.24266,21733.828044,7.903081,315.189984,368.770894,11.635399,49.804322,4.631641,0
6.168839,238.301048,24827.516641,7.720011,269.490173,482.673327,22.09199,79.169281,4.43576,0
7.230845,177.574803,17864.689386,5.818229,343.593332,367.689992,19.91295,59.303053,5.622018,0
7.080795,235.004598,3900.913892,6.93873,286.765101,553.494032,19.418013,84.84774,4.071344,0
8.693104,184.772809,13283.778053,6.521815,348.554792,560.96591,13.978348,71.733845,2.898223,0
7.080795,194.806091,32981.239456,9.554785,333.775777,286.794432,10.415889,71.905147,3.23168,0
4.79746,190.315127,21280.246559,6.188503,326.794194,357.436193,11.713821,63.863068,4.038503,0
9.319176,199.333565,14294.24035,7.78494,366.051752,338.44145,15.215293,63.391468,4.12923,0
7.581688,180.74914,11989.246243,4.977307,328.176978,617.883513,13.561253,39.215917,4.457282,0
5.348214,232.668509,11797.920916,7.816285,312.986753,371.910647,11.97568,65.797023,3.311168,0
5.487876,179.206983,20162.018618,5.21143,305.264142,510.609385,12.588475,58.861558,4.223576,0
7.080795,206.577843,40710.524386,8.813666,320.449328,468.051715,14.5235,71.450447,5.486132,0
8.315959,221.270223,16123.304451,9.475801,348.177331,501.673983,22.159747,75.364974,2.760213,0
8.551078,216.415932,28909.290284,6.936782,295.223707,510.895001,16.202371,79.859323,4.04638,0
6.013161,218.843256,21573.747571,9.295852,321.168313,444.276635,14.744347,62.443239,3.455623,0
5.744068,173.850882,28391.998185,7.01733,355.461589,336.061803,16.89518,65.447362,3.171655,0
5.21899,164.790992,27007.886906,6.592517,333.775777,422.223802,14.070879,73.92032,4.383943,0
7.080795,240.429787,25959.613898,10.571596,333.775777,446.742975,13.573471,80.268372,3.358353,0
7.458708,207.786573,10513.296781,8.920633,333.775777,442.368143,18.725302,43.898088,2.938082,0
11.02788,228.322798,13124.105636,7.516643,319.354039,376.231918,8.033859,48.529038,4.178898,0
6.72958,242.164146,17975.553227,9.808651,322.235101,440.859435,13.571223,62.179477,4.003458,0
4.150214,174.926741,41489.639814,5.569869,333.775777,425.250046,12.534009,86.683635,3.502371,0
7.159398,171.816105,28954.801012,5.81709,357.328759,530.526411,18.117042,79.09444,3.254926,0
7.080795,235.417457,13927.002507,8.551447,333.775777,446.422357,14.134954,51.705215,3.662648,0
6.209697,169.318505,22610.768713,4.875414,327.379939,549.276728,17.015118,51.505508,3.893767,0
7.080795,178.777716,10490.838987,7.533042,354.057649,367.758689,14.66895,57.401465,4.126408,0
9.608534,231.340228,4544.841718,6.577834,300.92233,328.904494,11.789619,78.568182,3.042797,0
5.375896,153.712874,56867.859236,7.894086,333.775777,493.888464,15.116023,57.712992,4.17422,0
8.697122,166.452774,27752.00024,5.350924,372.264099,393.555796,13.748668,75.024545,4.180568,0
7.748929,198.843094,18939.936655,7.375883,316.820248,368.402857,9.984033,65.251551,3.136945,0
7.117918,216.116319,20067.572789,9.605651,349.084949,331.971661,17.53913,84.032858,4.213568,0
8.310029,212.698276,40936.153391,7.703375,301.254422,365.431212,12.971869,70.485251,4.775785,0
5.524297,157.142424,26220.174214,6.344585,379.788376,475.342272,16.90318,51.106614,4.033391,0
10.201426,190.799079,8918.8926,4.899875,306.495369,331.378952,18.525434,68.547448,3.96445,0
5.368126,190.937979,32619.312975,8.098839,351.358134,435.666469,11.983635,107.900842,2.004143,0
8.937802,147.916892,10562.460539,3.694275,371.176313,480.320218,16.980755,61.158047,2.831234,0
8.124208,207.509515,26489.114701,8.540837,318.059624,431.625677,10.075598,63.984225,4.724457,0
7.184973,201.079219,25234.427972,5.216684,283.744612,384.011558,12.427538,23.136611,3.665411,0
5.499489,230.308775,13902.968646,9.619575,352.084333,442.167006,14.740787,66.396293,5.846827,0
7.080795,256.673469,8904.799818,9.71138,293.111123,324.997824,16.848444,72.687686,3.37168,0
5.319769,204.202072,22390.795566,8.053559,315.027505,399.119025,13.974085,83.157997,2.925732,0
6.369112,235.340943,34456.801132,9.17094,295.350524,357.417285,9.213268,59.280269,2.275903,0
6.733494,197.562665,27430.441731,6.035087,303.93767,397.684986,19.394027,54.510725,3.178004,0
6.883015,210.502217,14298.410462,7.243683,316.753889,570.424259,15.958334,70.615832,4.102292,0
8.013516,225.156452,20375.668274,7.837398,308.59481,382.014249,12.666016,78.767052,4.444901,0
8.272055,204.225329,24196.522679,8.448405,332.890382,500.684873,15.157408,71.022744,5.140208,0
8.746986,148.393724,22174.781141,5.459172,369.369881,407.380825,15.892079,72.164019,4.763731,0
8.154841,202.317335,25620.771365,7.651668,367.224297,597.870073,11.802847,72.384762,3.696328,0
9.045721,222.184169,22829.110842,7.609833,293.062459,558.747863,15.357583,44.555264,4.2137,0
8.92241,207.520726,13291.922609,8.560537,357.944327,468.538326,15.692738,107.282329,4.081728,0
5.961302,182.108995,23926.078825,6.18879,364.975499,567.526159,7.791638,58.174825,4.919585,0
7.080795,205.438977,20113.897568,7.248374,317.28021,558.953873,23.95245,68.242206,3.651865,0
8.18441,166.636554,17944.852375,4.038955,331.954199,363.235756,12.535838,56.310592,4.599082,0
7.636454,238.936074,18136.261585,11.086526,351.558811,514.96406,8.637461,55.603512,3.332906,0
7.775386,193.077168,15704.482093,7.881197,324.336203,301.753477,13.378165,89.051957,3.309472,0
7.617149,196.606942,27080.268722,7.382755,345.179887,329.016646,8.547283,60.144702,2.39154,0
6.664935,218.770008,16477.350806,7.325001,299.846523,412.308588,17.192685,41.035789,4.502138,0
7.080795,182.16188,30646.815275,6.325162,294.966088,404.120152,14.712285,106.37172,3.855773,0
8.815358,208.331084,26780.691787,7.223962,329.119685,430.406894,7.151751,88.413296,2.87588,0
7.765636,173.185569,13736.342036,6.984102,359.8137,355.998026,11.515123,39.550476,3.21445,0
6.225152,169.741172,29533.608826,5.574917,333.775777,380.114751,17.59551,75.519059,2.770823,0
7.080795,223.72043,15893.674411,8.289192,303.850663,360.468484,15.234277,48.195572,4.157927,0
8.567044,160.217867,23683.11019,4.28693,360.286282,490.512539,9.027167,67.476229,2.804927,0
6.994195,216.665319,23027.385262,9.79633,382.152977,369.468072,18.967259,59.651523,4.398901,0
3.344589,156.479927,55334.702799,8.530102,371.14777,485.631148,16.98061,69.62249,2.575141,0
7.080795,198.654976,20063.490327,9.539984,344.618535,412.979201,9.767081,43.142,4.565423,0
7.080795,192.254162,21762.614146,7.259638,331.649659,397.262826,18.261213,45.981624,4.344805,1
7.774468,216.752872,22316.398284,7.947534,385.043438,288.068578,14.136699,68.861861,3.891097,1
7.080795,172.731433,28894.47697,4.250917,244.285145,559.62934,21.340849,51.274712,2.95975,1
7.203439,168.445358,22826.484697,6.28325,271.892045,437.370863,16.410654,64.505923,6.389161,1
6.150488,240.888422,6342.502843,9.609896,421.343186,354.392526,12.340384,83.238661,3.551656,1
7.080795,225.959092,9660.658302,8.827655,397.92424,315.750909,16.716557,17.000683,3.959294,1
6.767524,203.751056,21162.726735,5.23275,251.062384,334.905376,13.214324,79.863009,3.300253,1
8.03743,148.415309,48410.471014,4.75588,268.211896,392.901206,12.46661,66.396293,2.506238,1
8.177175,210.44877,18626.149312,7.271672,333.775777,455.9275,14.247947,85.930428,3.325639,1
6.744799,204.084318,20215.697517,6.125252,304.527937,544.339317,12.014243,72.608076,4.868543,1
7.603775,214.682778,11459.622445,10.999995,398.920869,321.069074,12.010676,58.100707,3.584985,1
8.546146,177.846244,23349.485417,7.652073,352.817053,413.3216,12.357385,108.849568,3.5053,1
5.432512,231.351576,14970.647244,9.180703,409.988461,448.864741,10.838249,65.548216,3.874425,1
7.714089,194.738282,27336.962624,7.631357,322.072956,347.829203,10.641789,63.722933,3.182583,1
8.154532,168.098935,21361.197053,6.198844,333.775777,419.173312,12.302669,59.887367,2.460465,1
7.080795,190.219168,23094.872394,6.481986,298.356157,414.88913,13.461794,50.895233,2.977047,1
7.84588,193.785,13769.860238,9.007161,343.620823,510.305603,13.767802,99.175595,3.667154,1
7.156424,197.993538,27025.206963,6.734527,359.710517,448.457161,12.511973,49.299849,2.958415,1
5.694694,240.712182,7998.674511,8.124265,333.775777,477.047807,15.459307,68.895603,3.870611,1
6.707686,199.285374,17435.340206,6.809945,333.775777,454.73241,14.58729,81.378451,3.822669,1
4.775222,231.998579,13978.17266,9.422101,389.219586,526.067651,17.207494,73.94097,3.223081,1
7.080795,200.315236,19947.434475,7.378236,337.231469,295.757053,14.033995,29.668142,4.387208,1
7.080795,205.128303,17537.989616,8.025806,396.091917,318.536633,13.860453,93.714876,2.999702,1
8.501711,193.908906,21289.179593,7.10819,333.775777,393.176681,13.643236,61.12508,5.612296,1
7.741245,218.237186,22824.699465,8.696479,363.992748,521.016261,15.310631,73.72307,3.741143,1
4.187491,208.374188,21809.709834,5.846112,327.474203,264.508083,11.235144,46.682597,4.592959,1
7.080795,142.145566,45141.686036,6.03064,240.198505,369.280429,20.605552,70.168389,4.604725,1
7.808012,179.799917,17037.725367,6.378364,348.071511,590.060546,12.092499,81.592362,4.16555,1
5.895949,187.153617,37118.255436,4.60073,253.158469,531.169101,11.410184,77.286551,3.659653,1
7.269652,155.15752,31161.368388,3.181183,244.795198,506.010135,17.385515,73.115053,3.789237,1
7.080795,213.041191,12036.643044,9.79473,349.171395,284.017995,12.419906,74.674383,3.898916,1
9.489601,167.887629,40032.414005,8.349207,333.775777,354.790741,14.168314,102.567846,4.300695,1
7.45798,183.46131,14733.458757,7.475273,335.668046,482.63718,8.963254,82.581338,4.497731,1
7.99232,230.179573,17076.663789,9.598742,333.775777,522.888054,14.449181,68.640768,4.342797,1
7.746343,212.274645,21670.593663,8.458103,361.381325,457.014121,21.430293,43.188803,3.678686,1
8.275796,163.355961,22013.964905,5.742829,307.667123,351.631315,20.057619,78.501492,4.72134,1
6.879959,163.593339,44586.812651,2.741712,219.148935,554.045105,16.521942,67.53326,5.688207,1
6.799376,239.05768,7986.493239,10.36568,419.881175,373.232137,18.828594,43.440644,3.819985,1
8.167768,144.902932,36185.678538,4.54552,297.96023,605.458893,20.222075,66.396293,3.410686,1
7.080795,214.657331,19692.464394,5.94739,326.175709,385.827829,15.56346,77.834036,3.261651,1
4.736405,203.27642,28698.729965,5.271367,323.683683,508.820341,14.06314,65.155182,4.995602,1
5.953924,226.935062,11930.624795,9.677269,333.775777,350.968651,13.609643,70.571414,3.968647,1
6.578998,198.409247,22389.380486,7.317575,369.097113,408.195015,6.059608,105.40046,3.690929,1
8.775486,157.354289,22113.391452,7.931503,304.807845,480.715208,15.692839,82.929345,4.393944,1
6.850302,167.98504,40588.433831,3.372369,265.431121,300.411744,16.005207,72.363217,3.080297,1
8.757111,185.419367,31040.884494,8.544764,333.775777,408.095797,18.23522,72.299662,3.808793,1
7.080795,213.000218,21687.473454,6.901041,333.775777,383.747883,11.793246,57.345645,3.242545,1
7.080795,178.154855,34383.597639,6.42577,311.52689,570.378765,17.592126,68.992741,4.005893,1
8.073279,191.815523,17106.438645,7.898732,333.477592,432.898749,13.335381,54.216284,4.854313,1
5.078274,185.088385,18125.638398,4.105766,275.055642,528.156251,11.325447,80.338331,3.631042,1
7.444914,203.068746,25489.075026,8.175744,413.560378,405.420612,13.2831,74.412867,2.571392,1
9.434006,158.38784,20474.820824,5.857333,285.395112,476.842011,14.38835,73.164778,4.201054,1
5.905907,223.141882,13464.487162,9.125164,378.108306,337.858264,13.53166,42.844511,2.917284,1
5.803497,193.200991,19451.767603,4.146601,255.976746,365.477618,14.920616,8.577013,2.181714,1
7.617152,182.689825,33744.166807,6.225933,369.552958,327.228245,14.065597,82.781926,3.422543,1
9.008464,148.614002,35021.774097,5.594007,333.775777,387.399771,11.855103,49.480441,3.911015,1
5.422446,205.26608,18542.957451,5.491963,306.702227,382.080129,10.504023,67.49345,2.911751,1
9.778182,155.937441,23335.674206,7.666109,333.775777,356.543037,10.8246,75.328892,4.143365,1
5.204939,232.882725,17818.394489,7.300265,333.775777,404.003888,12.86642,55.498331,3.439561,1
4.872561,224.705105,16960.434631,7.078015,323.036852,354.390604,15.692176,79.962803,3.918006,1
7.793915,164.958947,25506.912237,7.868036,358.2592,398.460312,15.297496,66.396293,4.220028,1
7.080795,259.144928,2808.025756,10.087062,392.83316,354.405278,13.89895,63.857674,4.081329,1
7.058183,187.947191,26608.929154,8.556396,405.403423,462.314567,18.428387,41.29033,3.613835,1
7.890354,180.158098,32160.533923,7.773484,360.283983,344.550619,11.24646,60.292187,3.209588,1
7.5357,221.792481,14829.745971,6.701159,366.4122,583.436488,17.731882,59.686076,4.208354,1
7.202534,207.828116,11889.250632,8.015743,333.775777,369.044326,10.371843,62.03773,5.702505,1
7.080795,188.610518,27716.338723,5.6065,275.18224,520.587736,12.814604,66.396293,4.398059,1
8.722144,151.621132,28301.516949,3.651961,248.094759,468.367451,15.151173,79.538368,3.274629,1
8.352635,134.750512,33662.38905,4.439791,333.775777,397.114972,14.420882,55.586815,3.939011,1
6.284386,222.688795,18526.261691,8.980271,395.261637,517.150548,15.86901,55.384333,5.030712,1
7.080795,195.554428,28415.184347,7.489779,318.515271,494.404511,15.023962,47.144144,4.052367,1
9.30566,163.926027,39498.659289,6.914685,325.873134,345.656935,12.712187,62.471115,4.48507,1
4.923179,208.406673,15990.149228,5.648146,349.655175,404.405763,11.403372,84.525775,3.329601,1
6.143018,147.471973,34865.324634,3.684463,285.455102,475.445268,20.939359,54.19852,5.370403,1
5.744504,208.070052,19457.639481,6.693949,333.775777,362.06249,15.603729,82.317854,3.5335,1
6.616649,201.780847,17063.172108,8.353374,360.61231,491.724065,10.353995,60.009184,3.881767,1
7.6235,170.427572,36267.266658,6.040735,301.219091,404.501369,12.495658,79.946113,4.764995,1
7.860106,182.041986,34591.678148,6.187857,287.223779,285.228661,14.365625,74.888422,3.499775,1
7.39311,205.991157,13215.706382,7.740377,333.775777,537.136055,16.053202,79.35756,4.431739,1
7.080795,176.779947,24793.455675,6.394342,312.359148,377.066286,10.070192,50.124122,4.641041,1
5.579517,223.616393,13289.201653,7.69869,368.897034,375.275969,20.224426,104.580881,4.043915,1
4.303575,227.007086,7323.302301,7.490508,326.695199,412.896404,12.90673,68.748918,2.010537,1
7.310716,185.81714,21989.767441,8.437515,333.775777,425.532861,14.947811,89.77416,3.578826,1
6.417702,185.312183,33360.170722,5.573849,374.713855,509.819653,17.848994,103.321827,4.046306,1
7.080795,181.301874,23614.702961,5.454994,282.311641,510.944626,13.978608,52.30155,3.894061,1
10.774318,163.095106,38037.353074,7.602197,350.000236,477.723375,13.526522,66.396293,3.229834,1
5.036454,190.16452,29258.738136,4.991061,300.475925,332.359715,11.055801,116.161622,3.534665,1
7.080795,204.860505,24590.125934,7.774361,333.775777,440.936824,12.567061,118.357275,4.318272,1
10.415044,167.422581,34535.55385,6.354815,344.309289,491.516712,19.355841,45.104018,4.209137,1
8.418607,191.86709,29313.783353,5.605864,306.325364,546.790994,13.133959,96.125198,3.442848,1
7.808641,200.71487,15694.507194,7.219558,333.775777,519.862991,13.262102,79.344915,2.47272,1
7.557964,156.461872,32833.431169,3.311607,257.276554,277.234155,17.857214,62.553136,3.29227,1
11.244507,169.403655,43533.657845,5.88846,341.0296,336.446655,16.08971,59.494026,2.929953,1
5.728824,197.191839,12932.590386,5.684492,280.932064,445.069636,14.176501,68.124809,4.412174,1
10.486808,185.087914,26453.003348,9.548769,392.346252,455.743845,15.976018,47.400093,3.804352,1
3.792126,218.490857,16929.2902,6.110295,333.775777,410.694183,14.090719,60.32007,4.620686,1
5.716251,184.229295,19393.469862,5.299164,290.276455,502.993687,19.643896,68.23637,3.433135,1
7.080795,182.317256,30430.211752,6.151217,350.448584,479.957076,16.576565,58.675066,4.536123,1
5.473603,218.513145,14608.363145,5.621362,333.775777,472.796835,10.583581,73.106007,4.957822,1
7.080795,178.233659,37861.440012,3.912714,333.775777,535.086395,17.54544,64.071288,5.11387,1
6.770927,181.818066,26880.22004,5.215862,284.74551,475.54896,14.665441,60.515772,4.910534,1
6.04336,188.662329,24856.607107,4.371025,295.895207,355.007461,7.619812,79.944916,4.745248,1
7.080795,212.480036,23572.157802,4.976788,300.726995,449.951083,7.090387,66.026796,3.093814,1
6.320428,210.310043,11682.229317,6.968423,311.777822,375.964558,11.973422,62.960463,4.553381,1
9.185418,165.641502,18073.968589,8.108318,333.775777,534.698433,8.189662,59.663554,4.186675,1
8.684779,161.124205,40799.360328,5.381994,305.533784,499.275401,15.965652,75.914398,3.877349,1
7.961721,224.31676,11551.21568,9.492074,367.46601,451.808446,14.911191,79.687039,2.286943,1
5.484151,196.791251,19378.359067,5.003731,295.591019,348.399033,18.713876,76.414153,4.438858,1
7.186931,177.486533,34510.752995,4.984432,295.834151,477.994992,16.77754,62.756891,4.275645,1
5.470802,213.160478,18295.370921,6.043395,333.775777,317.948459,13.789267,49.642451,2.962852,1
7.080795,195.019569,17382.427366,7.036828,329.127738,383.794903,11.147085,90.886908,3.843405,1
9.792728,161.057881,30249.170845,5.214315,258.038852,413.155466,12.493388,76.22558,3.72912,1
3.637171,238.943744,10102.48972,7.532192,337.534425,509.150323,13.81845,49.652834,5.446566,1
7.064789,188.391725,20567.14593,7.443243,360.322976,656.924128,16.274831,84.827183,4.401628,1
6.632032,201.669933,24161.254979,7.964525,369.621585,346.860405,17.033602,61.20547,3.386294,1
5.913957,215.497882,13086.643934,7.78475,334.686178,283.401406,14.68358,55.326369,5.648606,1
9.484703,122.906991,56351.396304,4.219711,219.553437,480.848063,13.533433,41.731219,4.132274,1
8.447404,163.949905,19583.057349,6.433184,334.655886,547.02383,18.238711,45.668318,5.218307,1
7.727421,227.84272,18767.941635,9.716908,333.775777,328.854169,8.233405,66.678214,4.601802,1
6.859324,179.068805,27567.37567,5.885557,227.34846,391.599708,14.670555,83.469934,4.50198,1
5.846787,212.162043,19417.767209,8.442034,333.775777,393.95282,17.561933,49.388362,3.371111,1
6.300002,172.350281,40682.143998,4.242829,302.611858,485.672456,18.737931,64.808546,3.709437,1
6.64647,251.836248,5516.874953,11.14311,333.775777,339.208703,11.930433,76.52427,4.387602,1
7.313447,158.707472,23154.062319,4.143329,276.550161,436.517274,10.890085,87.91253,2.22064,1
6.572656,192.647334,14598.951913,6.164621,314.140056,343.895242,17.343806,53.08548,2.820927,1
6.002415,196.002938,16136.433269,5.687755,301.980938,336.914157,11.988324,43.912634,4.315308,1
7.080795,212.909132,14101.869292,9.112485,388.787785,337.191083,8.602425,74.581711,3.624635,1
5.936057,222.922307,18061.697568,9.982724,421.722024,323.499231,14.298521,51.868885,3.940282,1
7.59109,195.6658,17444.671404,5.307071,333.775777,517.203308,14.799553,85.775784,4.531196,1
6.875746,192.023659,25422.338548,7.57136,333.775777,501.605982,10.785965,68.294617,3.397303,1
8.016279,211.029304,14034.485799,9.797,389.338796,491.079082,14.512991,35.565966,4.308223,1
8.783597,199.930278,19471.465438,7.415406,319.737009,324.937029,16.311696,74.570581,3.470885,1
6.911698,179.213674,25612.148912,7.22471,318.987914,298.550513,11.858905,94.340172,4.616641,1
8.71924,181.0131,17430.91972,7.42121,333.775777,289.202741,14.427225,55.393613,3.912836,1
5.974583,197.102725,22543.256292,5.662657,338.357526,410.804132,11.16909,59.826439,3.721975,1
4.429379,256.212565,8746.901717,9.010332,333.775777,432.107935,16.307474,66.396293,4.271168,1
7.080795,134.679257,30211.832991,4.792361,234.285621,391.820964,18.999154,66.396293,3.840889,1
7.080795,221.675463,10117.084438,8.026586,356.211614,508.262754,14.058461,40.916811,3.190128,1
8.215124,155.762867,30579.371067,3.308977,333.775777,344.950584,13.686026,77.182622,4.511384,1
7.82874,176.727511,33337.109649,5.438776,286.992631,290.118613,5.871941,75.714425,5.199447,1
7.949965,186.789151,15171.012326,7.833275,333.775777,406.612743,20.539688,88.057105,3.317152,1
6.114332,178.446286,30606.223593,5.568042,260.771026,472.255403,16.711471,46.552618,3.68041,1
7.080795,226.270824,15380.124079,6.661474,333.775777,392.558205,14.08311,50.286395,4.51687,1
7.139428,179.234979,19862.811257,8.111958,337.947095,364.523151,17.384471,88.361846,3.771596,1
7.080795,223.511978,20134.398341,7.97773,359.225704,477.342656,10.933867,49.145504,4.314495,1
7.968526,156.451149,27008.011874,4.716577,333.775777,455.840428,8.360283,52.501187,3.173879,1
6.635894,194.04978,20339.01687,6.032864,307.954902,412.582989,15.894674,57.643457,4.523237,1
6.394548,193.047558,31620.190786,7.065084,333.775777,515.806385,13.081881,99.640691,3.042497,1
6.280978,205.123123,25972.803751,8.417896,383.671459,456.543945,13.95471,32.799029,4.599432,1
7.992027,174.558006,34585.089607,6.587302,333.775777,543.949141,12.199449,71.271231,4.647096,1
5.068796,211.689502,22781.364534,5.330123,317.103903,483.442018,14.495791,77.212274,4.362086,1
7.080795,164.909072,32768.227966,6.309685,285.560983,527.198675,15.843303,59.728173,3.499453,1
8.151249,205.847301,15661.940335,7.009437,335.622779,555.590284,14.861133,72.762585,2.799883,1
7.582942,185.045993,23072.780698,5.892273,297.505772,518.048524,12.038457,80.312558,4.164029,1
5.344117,198.379144,13492.840835,6.559265,328.648845,591.363369,14.084388,61.392983,4.104699,1
7.871961,219.622659,12760.437151,8.076613,360.086657,350.826916,15.698726,84.15808,2.938536,1
5.327024,233.140588,13580.618483,7.362411,356.420271,438.553499,10.049772,55.232271,4.855821,1
10.550273,185.165815,32150.979393,8.933966,333.775777,566.379397,14.282961,85.393399,3.951304,1
7.080795,186.174841,18085.158841,4.951277,298.399724,347.986686,15.715546,75.590599,3.068919,1
7.471027,177.233643,15736.580986,6.878354,277.109854,401.618218,11.285709,58.236119,3.707974,1
7.943882,211.816551,32071.179369,7.769215,290.337398,353.336484,17.87195,78.492783,4.111691,0
2.690831,151.782906,30204.546735,6.053072,303.702409,377.198273,14.121049,45.602992,4.650034,0
9.135694,194.815618,9496.910354,6.185925,345.714206,562.771467,13.676435,74.424166,3.281802,0
5.214009,192.648846,34184.308402,5.783357,282.969879,380.428415,15.867751,80.498498,4.453526,0
8.649535,175.42667,9898.022209,6.048404,336.477616,410.625098,10.069254,66.396293,5.229809,0
7.756679,186.686459,22440.401041,7.462613,342.999383,320.930966,19.572572,66.396293,2.842471,0
7.104295,177.571744,12691.515973,7.170977,333.775777,447.032289,14.376764,60.74377,5.464857,0
5.363363,179.91138,27045.929958,6.520855,311.467406,408.922517,9.704704,79.484801,3.871372,0
6.5825,200.733107,23720.48173,8.565832,353.008115,458.362733,13.001881,79.529338,4.152014,0
6.810467,209.735559,32602.340084,7.422781,341.174269,340.030089,16.736749,42.349461,4.40234,0
7.080795,191.53163,12885.516912,6.979955,328.600221,596.751026,13.447513,50.756064,2.372925,0
5.574117,193.158076,17546.403256,9.219973,366.197418,538.532518,13.951332,67.142033,5.152528,0
8.555283,216.655356,18337.460916,8.290688,311.325845,390.943089,17.138831,39.777282,3.687152,0
4.483403,172.383878,13122.223422,5.276731,291.199088,413.545047,11.871725,75.504542,2.203841,0
3.783044,157.852645,20384.773096,4.667082,300.048691,432.431822,12.701422,66.396293,4.402244,0
7.138374,184.745229,22575.188577,6.907714,333.775777,504.865693,18.503762,66.136988,4.144872,0
7.080795,171.592237,14784.755661,7.404583,351.875508,366.669512,10.504303,57.862157,3.210168,0
7.912361,211.376444,34808.44278,8.913364,333.775777,594.89929,16.68199,72.048083,2.878516,0
7.080795,193.116794,17388.982565,7.702135,382.060707,468.939344,16.233039,67.87391,4.217744,0
9.128358,184.682104,10418.108345,6.8502,388.068711,371.482308,10.444501,68.18402,3.762223,0
5.271971,193.169509,22005.43655,6.18395,267.825648,351.48028,15.664382,68.615876,4.119436,0
6.465094,241.268138,43958.67813,7.420155,306.020393,544.600567,20.768986,89.646506,3.790524,0
8.245187,199.305774,13909.479065,9.369642,406.047609,423.736784,14.801329,97.277004,4.125732,0
7.080795,196.432007,18128.908291,8.008077,323.552138,313.36187,18.600728,67.964376,3.502082,0
6.704792,176.896033,28140.768155,6.942107,333.775777,455.972627,16.03598,40.076113,3.806596,0
6.430255,207.579402,26855.105611,7.08791,304.173434,418.419471,17.921141,34.816398,4.805792,0
7.482791,186.093432,19621.325105,8.171865,369.190878,475.21146,12.127254,105.165799,4.094746,0
5.504452,164.500984,11950.235031,6.800958,302.190494,537.539609,14.393869,69.939822,4.657361,0
7.521921,198.354626,20139.430347,7.177655,333.775777,603.054956,13.77361,84.816771,3.110932,0
7.080795,164.094744,9344.653322,5.959309,349.019434,367.389811,13.937968,88.771969,4.559337,0
8.522568,208.133,16446.32805,6.729775,372.503843,346.374598,12.002178,80.758618,3.358284,0
5.694476,193.43213,18742.925222,6.556668,327.002371,448.754151,13.623308,56.326497,4.107467,0
6.934504,176.969431,15323.408822,5.66687,369.341803,435.948386,21.81316,104.7477,3.875238,0
6.11518,226.084429,24699.523903,6.707523,298.329339,429.706681,14.53608,71.04548,3.690862,0
8.575673,197.560283,15888.625207,4.865463,311.557381,464.725567,18.736927,40.224521,3.506229,0
5.689143,181.584565,17589.26899,7.23847,350.782082,345.536366,16.030293,66.396293,4.59298,0
7.080795,199.064672,39927.737045,5.454051,259.009945,257.963154,14.24472,52.616387,4.059377,0
7.226127,213.320616,23129.748056,6.193624,304.562776,624.229901,16.982256,73.733593,4.153559,0
7.197796,168.640975,12763.267889,6.897594,333.775777,566.250694,12.437571,65.746717,3.844013,0
3.846814,190.992873,26895.257956,5.629536,333.775777,660.254946,18.125202,78.153575,3.584202,0
5.896339,178.678094,17420.087149,5.292162,333.775777,473.686693,16.437715,79.471177,5.032855,0
7.080795,247.453297,43846.025266,7.865781,324.24378,334.166061,16.661153,54.236592,3.572344,0
8.32635,213.874858,35477.766643,8.364131,346.787003,569.103294,17.466467,62.792905,4.395285,0
6.891562,198.544641,26240.492982,5.15387,333.775777,436.927096,8.634319,86.810229,3.561963,0
5.548125,217.018259,34006.768745,6.647425,331.402947,430.269664,15.647036,64.980642,4.599236,0
7.080795,175.588146,17092.225827,7.338417,323.154115,491.728142,11.705953,52.363442,4.316063,0
5.386638,206.896806,20416.65103,7.312752,356.384272,525.123471,10.218185,70.033119,4.3209,0
7.262535,212.521308,38713.112692,5.837807,262.095022,332.425224,14.098786,70.300741,4.846359,0
6.257086,180.406211,13826.257914,7.075131,346.627467,422.600375,11.838106,77.838212,3.994714,0
7.025504,205.400529,21884.538515,7.276065,304.732203,442.40554,15.843744,65.580338,2.941555,0
6.584839,196.133985,16609.925489,6.673977,323.372352,304.713665,12.501554,85.682146,3.919955,0
6.565634,159.729363,19044.680071,6.693214,283.514672,393.625173,18.207137,67.054119,2.770948,0
6.622103,196.891061,16010.524152,7.256071,333.775777,264.283933,14.410952,45.448777,5.290921,0
7.217393,180.194221,13579.55458,5.993126,317.963404,421.963539,12.370339,63.446749,3.74662,0
5.253907,191.982047,34793.853306,5.817404,333.775777,395.713259,12.570715,54.968734,3.488373,0
8.131375,177.095312,13238.070298,6.678741,333.775777,450.718334,20.603574,85.105892,3.542811,0
6.619775,150.718361,11388.534187,6.80758,370.753469,431.430087,7.710769,73.634278,4.086921,0
7.080795,206.318343,18752.269677,8.202453,344.589628,510.48788,5.362371,61.911364,3.293553,0
6.217255,205.648251,32911.929717,5.946074,298.39049,414.771017,12.128366,79.245033,2.081425,0
5.019985,156.970822,19272.704481,6.18471,331.559845,341.35716,16.196573,75.302598,4.089485,0
6.90738,210.27921,40290.221636,6.874702,294.015198,340.704978,18.253472,84.022119,1.496101,0
6.313115,162.336412,20849.190737,7.086469,333.775777,387.957716,15.047593,83.921292,4.126965,0
7.080795,179.320123,5075.269202,8.737783,455.451234,392.353732,16.839331,76.243623,4.397533,0
7.293929,180.843125,15823.339374,7.721977,333.775777,457.520443,8.857599,37.73479,4.40325,0
6.630364,186.761088,30939.023214,7.703481,333.775777,330.876083,13.815757,86.753117,3.490588,0
8.01578,180.060377,12135.72493,6.259376,310.068681,666.690618,17.660149,66.588849,3.18058,0
4.24989,168.572146,16073.67062,5.360896,261.267707,449.051516,11.34921,86.946897,4.116348,0
4.26527,199.499451,25634.533284,5.914884,260.261206,300.547929,12.198732,55.942366,4.900446,0
9.266841,203.252613,20478.785957,6.838779,337.299567,508.28335,19.164525,66.396293,4.330049,0
9.619457,210.261247,18185.050473,7.939889,333.775777,387.330215,17.478162,65.989507,3.1732,0
7.086877,192.387368,25524.82347,7.354035,322.740031,548.917718,14.524408,64.124391,3.992848,0
3.433874,152.480075,16318.733614,5.973098,313.064316,412.915539,9.970144,68.507542,4.104938,0
8.436759,242.48858,44896.984112,7.863084,333.775777,575.937018,14.531777,50.774208,2.49991,0
12.246928,217.368014,11318.140563,8.46516,375.894758,347.653054,9.762505,73.832405,3.533243,0
7.343032,198.53077,14037.039927,5.788346,333.775777,479.241467,11.090374,61.10024,5.288058,0
4.616439,192.57401,14982.305477,6.080029,333.775777,344.146321,11.090006,88.483583,2.634341,0
8.307463,229.941234,18452.645571,6.895146,338.483703,464.900985,9.512103,84.053415,4.625729,0
4.909641,157.240458,10488.770937,6.929793,333.775777,311.745757,11.0238,48.525525,5.345324,0
7.709106,178.810828,18610.124152,7.734441,333.775777,462.201163,13.888704,64.841637,4.235108,0
7.080795,173.81671,26552.974401,6.290279,293.170273,366.718706,13.271499,72.12984,3.206995,0
7.818275,179.218217,27558.542533,7.504453,315.447492,359.09919,12.618667,52.377477,3.329243,0
8.207459,189.942157,17447.994672,6.761682,333.775777,449.412606,15.335711,54.946344,4.151866,0
6.958534,187.748849,13457.211129,7.363593,330.750392,350.603431,16.719156,77.671292,4.1946,0
7.080795,193.92618,14936.503971,7.203401,309.447432,447.450108,12.180626,66.396293,4.297914,0
4.34944,157.513361,24352.066099,5.967722,287.04511,432.642307,10.667254,44.289013,4.442712,0
6.629985,195.70038,21495.537558,6.546464,363.691949,335.80471,11.395098,66.165224,2.534499,0
8.969697,195.744765,9049.682595,7.467068,396.453568,378.528511,17.757697,114.208671,3.983099,0
6.77105,194.635122,15719.493609,6.746344,339.001575,441.730391,22.891011,75.472825,3.244867,0
6.724639,223.175415,41552.019664,7.7447,271.15712,463.885216,13.165035,61.058796,2.921415,0
7.080795,221.391974,27979.736222,6.57239,349.624553,355.781983,9.986355,81.963485,3.439623,0
6.967271,218.792793,33933.709852,8.97718,360.996941,438.809155,18.633065,71.919217,3.272471,0
7.080795,225.972136,32617.124604,7.380664,259.205274,355.879301,11.122653,66.359658,3.232872,0
7.053117,240.85177,19500.349983,8.051173,383.667866,377.188125,12.955577,55.522195,5.671999,0
7.755154,196.782784,19024.688671,6.911868,392.800081,338.430624,10.772862,76.617599,2.7288,0
8.580009,174.50682,6493.547256,7.040727,409.380908,403.596631,16.122668,52.166773,3.195591,0
6.90171,173.153915,10323.957841,7.436808,376.811708,538.620787,10.401973,36.751898,3.035671,0
7.81425,203.383463,24470.204256,7.631407,321.97457,516.646817,17.242909,80.651978,4.104662,0
5.918954,154.773517,9712.560664,5.326272,333.775777,386.218072,16.579301,65.882335,4.265547,0
7.021295,225.350498,23109.854231,5.907273,320.535989,459.89989,13.670099,77.339918,3.675558,0
7.080795,189.814682,19887.769826,8.115768,415.927898,547.026766,12.958917,70.937481,4.893751,0
8.132737,206.786448,25838.128484,8.684833,346.611849,472.277026,11.633015,66.396293,2.969434,0
6.057068,184.373232,14807.26849,5.753405,384.821967,462.00617,14.753055,34.26586,4.371748,0
5.343075,211.662091,45166.912141,6.651801,279.7675,485.959717,19.682337,70.546862,4.240032,0
7.080795,152.507679,11398.731105,8.728973,400.669601,385.335804,11.676601,58.60094,5.444927,0
5.742533,182.941032,21293.889754,6.826413,306.543072,435.234727,11.144072,68.612391,4.272203,0
6.584813,182.375456,24723.106296,6.23892,333.775777,414.350751,17.582615,78.213738,4.404132,0
8.070477,198.865948,18266.617717,6.90237,396.61951,376.710304,10.924461,87.379561,3.05579,0
6.652824,187.946409,19155.727561,5.949622,345.358533,433.875209,20.523191,26.140863,3.661529,0
5.506062,164.496172,21543.726601,5.983996,333.775777,453.88334,13.339716,55.751362,2.778906,0
7.080795,214.972435,36112.134634,7.094066,333.775777,414.101567,15.874564,71.631818,2.432507,0
6.441766,174.781849,11306.261505,6.685755,333.775777,544.354182,17.109829,89.122026,3.682134,0
7.080795,194.445316,41461.316999,6.951666,239.911902,362.500414,14.110249,58.751463,4.894842,0
8.248703,201.338857,24912.879705,7.877666,389.088844,415.683448,12.842048,51.859151,3.540532,0
2.569244,201.603284,48204.172192,6.380684,261.71996,429.74643,10.78414,79.719666,5.506934,0
5.664846,186.648359,18678.950811,5.153873,313.083489,335.505521,17.55157,59.571837,3.57029,0
8.999499,234.835477,20933.51275,7.980451,365.060966,444.077017,12.168764,54.404704,3.695084,0
5.588537,171.333123,17732.240668,5.588614,343.041575,466.445429,13.827755,59.376451,4.373999,0
6.265637,159.29019,18711.064662,6.835968,314.223053,499.604629,15.061714,68.107216,3.266029,0
6.922042,201.410123,16515.872166,8.463004,357.935222,336.046451,20.929103,60.520904,4.242947,0
8.072612,210.26978,16843.363927,8.793459,359.516169,559.167574,17.263576,68.738989,5.082206,0
8.828094,196.562853,17699.610609,8.94038,379.914286,486.863267,17.517283,61.182844,3.793318,0
8.647454,183.597374,12995.885427,6.195449,382.357869,489.762799,18.076963,93.409614,3.624101,0
7.475537,215.429102,31359.386456,7.498495,337.462379,477.235053,12.18631,53.90882,4.015574,0
11.53488,183.262261,4111.785432,7.416773,398.955345,475.255395,10.839796,69.420035,3.000096,0
6.453065,178.998245,23129.460178,6.354508,326.853185,371.882763,13.178301,41.525863,3.440859,0
8.19221,172.292763,13528.549383,7.354685,377.455712,455.015311,7.242761,66.396293,3.489283,0
7.247701,210.270805,31561.95553,9.080906,333.775777,558.526471,13.415205,73.62924,3.319953,0
7.893132,201.43325,20526.049705,5.628776,299.018236,303.878793,15.254653,71.542306,3.302212,0
6.16445,203.016474,19231.681749,8.551279,333.775777,371.167508,8.234265,76.657286,3.446401,0
7.937392,170.445328,6626.376426,5.117364,372.625257,316.022466,23.135952,73.786211,4.270851,0
8.281121,227.654351,17995.405219,7.493279,323.379987,459.865512,14.363661,16.291505,3.687995,0
4.906492,173.779159,14786.138901,5.843757,267.561144,620.34684,7.775896,38.794307,3.152345,0
8.143483,182.432457,10673.582674,6.607835,333.775777,427.545219,13.719331,77.769334,2.57283,0
5.117914,179.701677,26215.401103,5.502903,303.257592,369.618616,14.761878,82.831554,3.8067,0
6.44907,163.447649,16906.331298,5.152226,283.217329,397.507055,16.787272,82.016058,3.33155,0
5.613563,204.569366,16615.908152,5.618949,316.099824,341.523672,15.173956,73.450164,3.465089,0
5.754213,241.60243,31871.291239,7.299302,203.444521,495.945344,22.763707,71.428978,5.920234,0
6.906575,199.638124,15201.339954,5.136599,333.775777,306.023975,15.212798,90.57902,3.28275,0
6.336267,228.455028,29342.709756,6.963478,333.775777,398.181884,15.545029,92.011257,3.745725,0
8.121254,200.353696,25412.709742,6.54765,314.090738,411.986987,12.419359,59.763194,4.428312,0
7.080795,194.166625,11275.872655,7.266598,399.282081,427.896907,15.213176,34.471753,2.909606,0
8.935116,218.394054,23774.258279,6.414852,324.844691,413.004844,13.45058,63.579317,5.168298,0
6.452781,190.321391,22034.954596,6.914693,333.775777,353.89767,12.158056,67.212405,3.425065,0
8.458815,225.712359,15677.970686,6.410043,314.331408,636.257755,10.61371,71.96339,3.507709,0
6.930083,210.425875,22802.03993,5.945303,333.775777,473.795554,13.90011,64.042698,4.149414,0
6.25507,173.840226,25456.274977,6.23314,333.775777,482.019799,14.235105,70.704363,4.1942,0
5.669819,203.452715,27244.63447,6.60495,333.775777,361.23848,11.09506,68.923128,5.600459,0
7.945407,211.800085,15938.286439,6.636454,385.65273,392.166088,9.619021,40.233823,5.428917,0
7.499844,210.985034,23707.465304,7.148518,333.775777,484.84334,18.081957,52.967469,4.454477,0
4.695516,198.910488,24767.167109,7.87975,353.484674,512.841874,19.957513,44.34568,4.641738,0
6.710634,203.642917,23748.183992,6.726664,342.441433,455.967558,15.879549,63.676952,3.863287,0
9.502857,175.585673,4466.257488,6.416459,370.851893,406.309854,13.754221,57.438275,4.237345,0
4.405327,169.742537,15039.710406,6.308198,352.917733,424.251162,14.441754,79.169597,4.086867,0
6.810345,166.592425,18852.122979,7.847712,333.775777,294.383914,13.447314,54.117664,4.115696,0
6.983133,181.119529,17503.31223,6.931628,333.775777,181.483754,11.59834,72.033901,4.426983,0
6.968131,205.982582,19207.311771,7.285998,283.478555,459.176682,17.916964,50.87882,3.030824,0
5.762552,184.847487,22159.018073,6.302264,347.775154,449.435376,12.950545,65.839742,2.906589,0
8.397248,199.495811,16772.226246,8.117218,343.403764,402.464906,17.236047,75.853549,2.835794,0
8.828327,189.975553,13527.989886,7.145967,408.591208,338.512459,18.5435,66.396293,3.052822,0
9.395842,162.1577,9225.770911,8.275035,333.775777,451.524629,12.632707,80.249886,3.530498,0
7.593177,201.068737,19214.186357,7.71012,351.38608,451.211449,4.371899,74.673986,3.542093,0
5.149133,198.33244,16795.318674,6.708068,326.952617,303.333632,12.510887,66.376374,4.839176,0
4.916741,191.46711,23425.331316,6.857583,333.775777,316.422251,18.281754,43.43324,3.613212,0
7.080795,202.88699,24518.574297,7.217408,360.154113,492.352061,16.743289,72.710127,4.174569,0
7.37129,180.736526,25672.311996,7.377422,310.567467,298.053057,12.671607,27.559355,4.084697,0
8.278753,200.162223,29381.936405,7.249879,333.775777,456.470673,15.160641,70.337057,4.767722,0
10.202972,211.963404,21708.949286,7.491895,333.775777,395.140783,21.520593,62.65946,3.270904,0
4.562156,189.261418,23829.79288,7.815125,325.167371,401.551657,13.624148,66.396293,4.822884,0
7.080795,205.95225,29743.822595,7.518692,333.775777,430.24601,20.720473,82.396766,3.893926,0
5.202672,195.329689,23051.441857,6.959567,245.728949,473.548484,11.659196,49.52233,3.927981,0
9.149734,230.561899,30468.641826,7.667655,337.557972,539.625037,16.133499,58.134527,5.436819,0
7.615557,204.869974,8403.284552,6.012316,418.309431,311.178955,12.742329,67.282328,4.243134,0
7.813068,183.69748,9812.122463,7.607639,400.373526,539.610797,12.348083,90.390277,4.713719,0
7.721033,203.354788,35800.699273,7.683399,312.919044,424.966995,18.092608,96.442129,4.168487,0
9.056245,197.666301,17403.532167,7.688917,337.460176,414.766631,15.349869,63.696746,3.319354,0
8.082657,213.755177,21689.634297,8.771784,325.034265,508.116473,17.038212,66.396293,5.24713,0
5.848667,210.441205,33095.389597,6.095884,312.375786,482.451933,11.813338,61.935078,4.874534,0
8.470546,199.489716,26559.380406,7.904381,351.738925,491.519705,9.50488,66.146355,2.935802,0
9.228582,180.944697,10345.399315,6.056989,333.775777,397.04313,18.215464,53.976734,3.839185,0
8.170588,208.279181,12806.832327,5.489259,322.923998,472.028286,13.389549,28.566364,3.995857,0
6.381977,211.917276,20709.279762,6.171162,278.949273,525.075478,16.684074,74.529806,4.991896,0
6.989814,221.000235,20769.519636,8.361019,307.523159,326.58636,12.286237,62.768615,4.808583,0
10.378108,200.004121,8644.831047,9.823507,442.761428,473.814191,14.156241,64.164409,3.577447,0
7.080795,182.100573,17423.407989,6.815719,333.775777,495.513128,11.558372,85.864119,3.568197,0
3.590822,213.702299,33431.671122,5.542364,308.380612,465.630119,18.126924,50.081054,4.144781,0
7.388519,201.057714,13921.146217,7.766495,333.775777,560.774729,14.467095,74.374018,4.409054,0
6.966835,158.043065,12256.678287,7.105619,371.517435,382.443863,14.40808,78.100735,2.957441,0
6.703487,182.129514,24316.875146,7.009806,341.333952,479.537497,20.088643,53.925045,4.223884,0
7.139671,183.427975,16916.413537,6.539416,333.775777,363.767714,10.144443,42.315473,3.151389,0
6.648793,213.959988,16388.405265,7.656506,357.728131,372.686995,15.379519,31.895507,5.138048,0
7.080795,182.059534,17869.455441,9.832911,361.537736,359.44942,20.20933,49.15664,4.170076,0
7.940713,197.049965,10762.938632,7.515815,384.791134,406.116784,16.237265,74.611653,2.990151,0
8.228564,182.196905,18132.094401,6.712007,335.780518,569.934888,15.119348,63.359706,2.781944,0
8.665692,162.359687,3802.411681,6.281553,333.775777,337.972823,19.270709,84.192581,3.494032,0
5.064042,214.529328,21035.106855,9.134813,333.775777,471.178109,13.333518,58.194222,5.122703,0
7.894323,176.319304,11697.606972,8.198106,376.783989,383.019101,12.677488,57.280265,2.865031,0
7.042794,194.046719,16733.124103,7.701926,350.243966,504.925466,19.703422,82.253454,3.965647,0
8.305064,177.174394,8451.319111,5.807122,335.871718,361.691437,14.359351,50.926671,4.461211,0
8.268308,168.68789,13181.673516,6.383226,298.307093,294.298065,12.366424,79.206473,4.405408,0
7.080795,199.570525,25305.10293,5.956792,329.133255,287.596062,13.786141,33.781557,4.133069,0
7.397562,217.936799,24502.155146,5.919099,333.775777,426.003004,12.26315,49.502513,2.459337,0
6.367299,183.789491,11619.709697,6.035221,343.828015,362.775439,16.643696,73.259221,2.614766,0
8.410626,185.183739,29985.249881,8.178008,333.775777,489.904347,17.697765,74.230076,4.352296,0
7.098246,207.535381,22671.479761,6.284582,295.585686,297.106494,17.105328,71.020825,4.909571,0
7.322502,196.104298,19534.421648,6.661157,297.841381,418.075511,17.161768,69.467359,2.981649,0
5.198225,173.119821,11178.403544,5.893458,343.209876,390.065616,14.160899,65.433008,3.807318,0
7.080795,213.474706,20626.515937,8.442057,318.738774,337.895405,7.689294,77.003121,3.23657,0
7.080795,215.750221,36776.137499,6.669057,294.111044,489.885871,11.18035,66.396293,4.754313,0
6.280905,178.7072,16950.015907,7.866135,370.32635,388.552621,10.971432,74.608023,3.021289,0
6.82393,146.130599,13467.87978,6.423224,289.57646,412.840506,14.307687,81.529534,4.016144,0
6.629994,209.157022,20487.923825,7.278912,332.877574,524.883329,20.751751,60.236844,3.155214,0
10.301571,199.609364,11278.829678,7.464893,433.448168,461.979286,17.099096,63.190835,3.857852,0
6.123194,181.312418,15135.127236,5.824042,293.840703,391.610322,11.591795,61.946683,5.457831,0
7.080795,196.139312,10540.342278,6.45946,359.168722,400.679602,13.583559,45.900706,4.149483,0
6.848033,165.815326,6068.454885,6.132132,373.206834,442.786267,11.118171,64.0276,4.257038,0
7.080795,227.082694,45166.639389,8.075967,279.75807,472.245938,17.013801,72.606332,3.14479,0
6.411526,197.684879,19505.296945,8.262398,333.775777,436.056485,12.902109,66.396293,2.200678,0
5.122648,195.018888,17279.513749,7.027441,336.466042,446.712219,4.861631,72.83754,3.504525,0
3.434856,185.342961,22690.244404,8.150954,309.217651,398.37013,10.03495,55.947322,5.38951,0
10.84813,236.725049,14036.163656,9.002885,333.775777,564.902813,17.405818,66.396293,3.133839,0
8.725393,213.610372,18862.673054,8.670127,324.027106,396.22901,20.055737,96.59146,4.565542,0
10.351743,241.6718,18588.303326,8.784378,333.775777,303.688107,13.615947,75.129896,5.227609,0
8.174028,192.39043,19808.537766,6.955821,377.700189,503.522172,13.780973,59.542769,3.986781,0
8.034012,197.609392,25204.674082,6.501097,330.552173,490.8215,15.107289,89.800947,2.452121,0
8.205542,188.277188,19902.823824,5.002792,333.775777,331.345569,15.062841,57.814335,3.634031,0
7.893818,203.296621,16853.676328,7.334428,339.767579,398.9895,19.31876,58.57461,3.508504,0
7.080795,218.405545,11370.649169,6.866826,392.841907,284.551173,16.09552,66.396293,3.266562,0
5.488135,192.507984,21715.774409,5.454063,333.775777,553.287241,13.081524,87.279537,3.652991,0
8.163074,162.231846,10494.573369,8.087496,423.952028,487.318346,16.011608,69.976719,4.128193,0
6.867001,184.248496,14464.115547,6.759352,371.283819,497.703775,14.782861,73.433479,3.484121,0
5.821707,220.125423,40009.72361,6.631836,333.775777,493.118346,12.420834,49.129301,3.908199,0
7.451889,203.200286,15825.182571,6.754242,333.775777,348.952903,11.094898,91.493087,3.930081,0
6.898315,228.802804,45939.689158,9.564027,377.813505,392.382326,13.872994,66.983589,3.822307,0
7.54434,180.119728,17253.33674,5.741254,333.775777,575.922172,14.861906,58.754981,4.435514,0
4.103868,168.283651,22207.470232,5.85008,333.775777,344.869506,15.466455,34.719623,3.808851,0
5.329939,196.034623,24000.523144,5.729575,335.092322,511.705187,18.588091,68.458037,5.799322,0
6.962994,206.817887,24036.593827,7.691454,356.632561,552.273055,8.574691,88.620139,4.760382,0
6.84606,177.829127,16515.670391,6.14721,308.901696,542.997099,12.626474,60.900254,4.709374,0
6.279842,175.89064,11582.505249,7.059985,333.775777,430.322092,15.674785,86.760257,3.278584,0
6.73985,197.374482,34702.417848,5.869685,261.068006,390.046573,17.757917,91.384605,4.37963,0
5.495035,184.434836,26744.301742,7.356517,332.030285,459.642172,18.417924,71.875574,4.115428,0
7.58377,217.283262,36343.407055,8.532726,375.964391,393.877683,17.442301,77.722257,3.642289,0
5.866703,159.433175,16298.001347,5.784709,333.775777,525.213791,11.055446,79.28874,5.302973,0
6.39498,220.422389,21051.256907,8.739505,348.04776,353.365418,19.637042,48.709989,4.732003,0
5.821262,204.04889,37174.005414,7.867815,329.019554,466.783264,13.988707,96.826961,4.371079,0
5.514062,212.555066,27859.748306,6.646356,286.474806,524.547975,13.067803,99.918387,4.460363,0
6.730884,192.436076,22296.059652,7.450541,333.775777,326.350745,11.827401,66.396293,4.359137,0
5.198068,200.464445,37200.242065,7.401099,311.794887,573.135532,17.238656,74.948217,3.295034,0
7.080795,191.012309,9626.893206,6.179377,353.055891,271.368437,13.441175,92.48614,4.654177,0
7.362331,215.637255,28263.310638,6.478948,333.775777,417.608214,16.552543,56.399346,3.933565,0
7.066142,207.361429,22523.43357,8.064693,343.293876,503.253317,12.168334,83.656615,4.127599,1
5.420348,232.386827,25107.20863,6.53668,333.775777,473.268096,10.817123,81.224983,3.75672,1
7.015333,222.113004,16351.226287,7.838884,353.189806,420.136873,8.840514,66.543935,5.251223,1
7.080795,246.239763,6974.225135,9.812468,417.911837,355.53247,13.330091,68.388378,4.138697,1
6.044672,150.671021,13593.600018,6.456238,401.737392,392.206741,19.827392,43.564293,4.914884,1
6.19865,246.476962,31369.541641,6.218948,333.775777,527.000796,10.522935,62.125469,3.574172,1
7.678945,178.200542,20243.088195,7.099474,333.775777,363.97406,11.913204,58.2737,3.08955,1
8.062066,125.705329,35381.670759,4.740111,333.775777,463.46164,7.091229,98.59456,3.040031,1
7.255799,200.163795,32595.120244,7.572435,324.551514,489.27216,12.305634,45.687421,3.968177,1
7.080795,239.439953,15426.915079,8.731751,392.312173,364.956491,14.16201,70.765992,3.430167,1
6.792407,306.627481,28508.216929,6.811416,293.078305,306.115539,9.006143,60.912034,2.50565,1
7.368166,204.041451,8524.874646,9.469763,429.814322,328.565288,11.173155,88.888819,3.684263,1
8.837787,195.827213,11610.207949,7.870062,332.759029,514.925997,12.291616,87.429078,2.08708,1
7.108141,148.624606,23688.205223,7.003488,339.112673,259.963763,17.218575,56.044934,4.015246,1
5.289618,194.056393,21776.170174,6.278293,359.099733,353.77293,14.181471,33.592031,4.5481,1
7.169251,162.478226,39624.087179,5.408354,300.69513,507.027006,16.559229,66.396293,4.533174,1
7.695049,153.809783,11598.682367,8.053642,333.775777,297.675877,12.907351,73.688742,3.198879,1
8.69315,219.178297,16559.877262,8.877011,355.30498,545.228668,7.283013,73.331529,4.687847,1
7.080795,184.786038,18113.017302,8.31908,381.513212,530.248387,19.385941,70.957565,3.077035,1
6.999765,219.143373,16078.459386,7.652135,355.688892,282.502338,17.297556,65.065069,3.360131,1
6.897923,173.390928,16616.516617,6.352934,329.339768,337.436088,12.446976,60.159413,4.490105,1
6.382315,212.838514,24259.751669,7.360504,333.775777,342.581444,12.332979,67.748991,2.88137,1
9.917092,196.603746,37215.226835,7.408018,247.934855,522.548553,5.51204,77.830816,3.393325,1
5.609025,271.630824,26955.330183,6.772753,296.651564,443.872558,17.048683,72.827392,3.35489,1
6.277463,225.941935,22807.338851,7.38926,333.775777,328.68442,13.225666,50.803353,3.123166,1
7.080795,190.267367,15255.115258,7.597688,366.192327,418.476742,13.312723,68.944888,3.796737,1
7.714313,191.69264,19789.63608,7.856557,340.326314,377.926368,18.917027,58.692204,4.425134,1
6.351287,162.213345,22337.448393,6.867964,379.613803,337.077349,11.712149,65.967814,3.707054,1
7.958871,184.828557,26845.661013,7.673719,327.239109,389.264216,11.032867,52.51052,4.007903,1
6.618187,164.254565,13776.621792,5.925462,333.775777,315.199393,12.082169,61.474423,3.797068,1
6.000723,161.002305,21111.664104,4.339126,301.307173,384.753298,9.261965,71.002217,4.176219,1
6.392928,159.168926,21217.158596,5.298877,317.256788,305.2436,16.865453,62.154379,3.271339,1
6.977268,223.278891,20287.35977,5.274745,282.085719,377.000392,14.046278,67.627241,2.367041,1
6.353437,218.549363,18664.844297,6.690394,312.393019,503.414897,15.422459,94.386932,3.861109,1
6.01994,140.867898,20666.410142,6.903525,333.775777,428.695331,8.398237,67.290956,2.747027,1
7.330197,159.80372,14884.339958,9.194575,411.100692,404.195912,17.375739,51.153972,2.884715,1
9.241339,157.927492,31598.536377,6.778054,333.775777,464.025483,12.053627,93.871692,3.842578,1
6.593174,176.612829,21857.838889,4.709044,333.775777,310.435979,14.314282,52.697958,3.931653,1
6.948265,225.23176,6874.586016,10.116984,429.04562,386.582083,15.845193,59.474013,4.095612,1
7.080795,210.732854,13671.41603,8.546187,418.470551,352.252328,10.353659,45.304007,3.364891,1
7.080795,214.725704,21093.217409,7.366497,291.283272,539.006521,14.670246,62.259623,3.589252,1
5.938321,214.469575,10815.399442,7.795543,333.775777,626.128737,17.477598,59.989737,3.8895,1
8.249551,230.932832,32898.749368,7.019971,280.674984,364.931128,17.051185,69.781641,4.284831,1
6.903817,258.526842,35455.709612,4.881377,206.247229,318.622622,13.96174,65.866679,3.867843,1
7.605675,210.371436,9583.710441,8.509403,371.47169,325.683691,11.781265,86.513474,5.554075,1
6.589291,108.699077,34298.152941,4.94941,317.610182,324.590273,19.495393,66.396293,3.181112,1
7.511817,174.614134,15736.893959,8.034284,333.775777,303.108146,17.42546,90.662337,2.28552,1
7.301445,143.43135,46718.555965,4.768781,252.466485,446.839673,12.575417,60.648404,3.160075,1
6.788292,182.036895,25661.360539,6.939853,352.344929,419.895888,11.835382,71.436038,4.255948,1
7.080795,184.040988,23727.094105,4.964449,277.680837,382.847741,10.213623,75.56105,3.714469,1
7.080795,194.761215,38119.185568,6.998158,333.289216,436.927417,13.746598,60.490581,3.356978,1
6.692532,200.404351,37033.152091,4.727072,280.844916,376.672794,12.485257,57.818484,2.942115,1
6.028101,262.808478,17150.10055,9.37839,380.30135,514.545672,20.637599,76.529077,4.080786,1
6.715941,218.062384,17180.188184,8.915971,393.275772,349.00307,14.354595,57.247082,2.404729,1
7.490787,202.458061,26551.370105,7.120772,312.934025,306.345563,17.99816,67.356079,4.354535,1
7.080795,287.370208,41325.443548,5.51728,333.775777,375.724519,13.977338,97.859775,4.322325,1
6.336589,106.380113,15570.142322,6.851405,441.587654,380.433019,5.218233,48.735514,4.356594,1
7.381758,203.460302,1372.091043,11.129154,475.73746,361.342496,16.548438,55.132546,3.338022,1
7.256015,196.649823,44184.23046,5.265558,260.425605,324.250148,8.148929,69.375044,4.53496,1
7.025822,147.96806,21226.665548,7.342381,387.402857,421.099917,13.996101,51.174058,4.746092,1
7.60688,183.8401,29339.929268,5.703617,259.534719,426.985942,14.006983,91.590703,4.56446,1
6.98386,202.256282,11848.769729,7.657534,333.775777,486.970543,16.06144,61.851358,4.159567,1
6.34702,97.280909,19743.148416,3.402682,305.431236,502.919013,15.094091,86.554168,4.526351,1
7.322828,230.342901,24682.124546,7.42558,323.832737,349.313213,9.497937,50.660145,3.981969,1
6.777506,207.050748,15228.912909,6.182409,321.399404,523.241732,12.683724,86.165971,4.26318,1
8.370365,155.553565,27193.317378,5.791453,333.775777,356.519865,7.832108,69.419665,2.74665,1
6.642756,168.896422,36505.524258,6.062561,298.55248,474.05749,14.299242,71.706891,4.299209,1
6.217585,203.707222,15597.640883,7.751461,361.24781,452.922025,14.597145,70.850977,4.150167,1
6.630122,192.521703,36269.701317,4.973866,277.499297,320.470853,14.786347,80.980213,3.352765,1
8.051022,171.751754,28338.66404,6.392121,319.005071,496.906266,16.19287,91.123219,3.767443,1
8.416087,208.326022,28234.906857,7.784123,297.330528,444.560108,12.645176,78.756533,4.930084,1
7.080795,166.913991,24037.51049,7.136713,349.885276,411.478461,9.456473,94.901122,3.743704,1
7.933068,204.724281,12732.888243,7.717187,331.087177,449.685602,15.669628,55.40408,4.534233,1
7.917609,181.52539,15805.650153,7.263018,333.775777,291.796067,13.043617,77.131051,3.784085,1
8.942046,215.673786,56488.672413,3.231438,129,541.915468,9.313771,70.828374,4.354288,1
7.033945,246.622871,15428.450916,7.570769,305.616422,516.217847,17.526819,91.602794,3.931731,1
7.080795,158.207647,45243.028953,4.064878,247.180038,399.766965,16.086232,53.502086,4.108857,1
7.580049,225.088555,31749.924396,5.884795,333.775777,503.908733,18.502406,78.354341,3.959637,1
8.473249,129.240081,20465.588609,7.212917,333.775777,590.906574,15.292706,63.939821,4.810185,1
6.816417,237.269505,24170.274894,8.706012,349.772176,477.023965,16.57406,92.945757,4.274738,1
6.460034,215.440641,35775.793396,6.502544,307.563455,365.094143,8.127543,77.554953,3.535598,1
6.227827,169.926222,22550.492264,4.973593,297.404497,460.415386,20.789592,93.300733,4.007347,1
7.080795,190.567521,18589.03116,7.470353,362.146977,471.444769,13.760231,90.30631,4.400203,1
7.080795,195.540967,4142.499001,9.892703,462.474215,435.418245,15.846048,66.396293,3.612919,1
5.632732,283.997284,28315.437777,7.144655,318.465146,425.984213,11.813231,67.651025,5.114607,1
6.191241,231.322797,29778.357877,4.381097,248.304391,488.954164,13.022135,54.060851,3.315071,1
7.701033,121.575139,16978.926829,6.812416,354.250252,368.224575,12.997263,69.260209,3.395483,1
7.080795,187.043283,24634.552443,9.08188,333.775777,443.843399,11.053925,74.10818,3.498717,1
8.832641,199.425038,25100.131405,6.81766,333.775777,453.757972,14.632438,82.650635,3.45215,1
5.646083,219.342932,22455.695012,8.283758,386.03879,401.256292,16.650114,31.174039,3.938506,1
7.332104,185.415077,24412.503537,7.253852,333.775777,310.261974,14.942217,66.396293,3.901097,1
7.896744,197.602078,9407.664039,9.610056,400.274579,270.794059,11.300587,53.201848,4.889458,1
5.675295,228.590392,39172.389643,6.014738,333.775777,330.078613,11.423377,59.267099,5.021465,1
6.010618,184.558582,15940.573271,8.165222,421.486089,314.529813,20.314617,83.707938,4.867287,1
7.986018,180.795558,24712.993432,5.687865,287.570884,434.954519,8.642494,84.581963,3.153005,1
7.080795,263.857675,16670.996013,7.758237,333.775777,427.811456,17.151969,77.810699,4.304052,1
7.159614,167.823315,30897.990039,5.48492,333.775777,437.348585,15.581903,61.853528,4.943843,1
7.565198,213.428269,11246.426646,8.208678,377.221672,341.716459,15.669955,67.230057,5.185,1
6.865569,231.445054,22585.788809,5.676387,333.775777,496.603425,16.154964,91.461709,4.916218,1
5.736676,180.290908,12683.483292,7.907877,423.876297,415.006576,12.392869,83.707045,2.741791,1
6.12907,198.021095,22207.482865,7.387451,333.775777,464.851322,14.028602,61.446945,3.837639,1
5.991371,186.722631,28702.95238,5.922293,338.027599,430.185162,17.664555,68.573198,4.539371,1
9.723377,190.897421,9076.646483,9.752088,357.384709,443.037417,13.307824,62.826687,4.072063,1
7.736313,225.063103,19496.848592,7.158343,289.945985,433.974022,15.153817,74.765101,3.700917,1
6.715799,193.162501,16006.972588,6.369163,314.452425,316.278029,17.865533,85.192511,4.999752,1
7.966763,163.927242,13354.70651,7.476969,333.775777,366.379544,17.125863,66.396293,4.816348,1
8.242559,155.616112,24042.18816,7.63921,338.293868,418.263757,13.265853,66.577952,3.529427,1
6.539546,215.445204,28979.767601,7.015365,312.335472,426.083479,17.950001,54.983878,4.076403,1
6.785384,216.647068,13098.85829,5.565529,333.775777,343.972405,15.238642,65.614705,4.677921,1
7.007975,248.904712,26136.313571,7.773736,335.054244,403.754256,10.905476,75.333025,4.628975,1
7.740384,179.302381,12477.771818,9.989628,421.39399,471.783153,8.412402,66.163439,3.013361,1
7.918087,175.33724,29565.711108,7.43218,333.775777,322.533423,11.309245,70.116746,4.640043,1
5.77277,186.060603,26693.761607,5.80858,333.073364,312.869364,12.376272,32.761161,4.154685,1
7.571684,173.008338,8835.555876,9.566105,436.294071,305.834487,11.009592,92.481885,3.920288,1
8.733525,203.39613,24578.421221,6.594145,288.678463,336.824656,16.70192,68.793062,3.149202,1
6.917858,200.705505,27651.609099,6.529774,321.696455,453.63751,11.283387,91.942181,5.544167,1
8.512781,157.666918,33092.669353,6.765469,305.85557,377.618945,13.309391,43.019427,4.026622,1
6.539115,218.619699,23308.296877,7.177445,355.443831,585.166427,10.742146,40.773856,4.211672,1
7.080795,228.756819,32161.84009,6.961297,314.14327,309.608411,19.218374,54.268008,5.537476,1
8.227083,274.351887,40546.956332,7.130161,241.446917,417.673702,9.809669,79.397105,3.619182,1
7.274198,156.110829,16255.901371,7.65455,381.180466,591.801472,12.312493,59.680518,3.152763,1
7.11898,160.962603,32528.115614,5.089128,292.287888,440.317871,10.008146,61.679801,5.349211,1
7.080795,163.409819,32865.509525,6.066793,317.467499,279.646804,10.811673,81.526457,3.574605,1
5.941943,249.163567,14778.032875,6.390679,335.796082,517.546817,15.931879,66.551419,4.302179,1
7.278911,135.259272,22184.527033,7.156541,357.909795,480.143109,11.316002,54.943992,4.201577,1
7.445189,150.775723,4168.196994,10.573403,476.539717,355.578481,15.352425,74.760976,2.745804,1
6.442496,183.071355,11592.445624,8.960736,408.24267,385.014867,16.148258,83.332516,2.891019,1
7.080795,190.87747,39802.514917,5.216683,288.231518,365.148152,13.680838,91.925742,4.989876,1
6.919726,194.859,35558.731647,6.371978,299.786711,394.829326,11.983961,69.853135,4.120828,1
6.472371,164.768901,24246.503565,7.623012,373.212808,368.07951,12.764141,96.795403,4.134575,1
8.251218,167.385353,17617.876309,7.044433,323.400032,277.412711,12.49351,61.275234,3.495063,1
7.080795,191.665183,18964.092256,8.148358,318.992406,354.10183,15.07245,84.115673,4.600663,1
6.707108,211.086503,10794.783898,7.967188,373.571878,406.198555,18.781679,66.396293,2.640246,1
7.240194,154.137579,31144.703124,4.807069,261.213317,451.015838,10.851917,66.396293,3.362822,1
6.528491,184.42916,10835.201157,6.826331,378.77572,430.418787,13.621325,100.821792,4.585972,1
7.031839,175.46586,12653.944085,7.836606,333.775777,571.822068,13.216489,61.084652,2.725565,1
7.494391,205.190707,25058.160217,6.881659,327.949396,313.09152,16.589072,72.976741,3.579652,1
6.957434,214.380139,15007.421534,6.99716,328.81876,468.555062,17.407261,104.207104,4.89205,1
7.080795,179.408168,16589.811554,8.405842,317.837525,327.650904,15.553588,66.396293,3.327384,1
6.962325,205.18302,35229.077002,5.08871,254.729932,360.05896,13.61756,66.396293,4.526768,1
6.509622,197.759503,20122.192564,6.862782,353.011974,472.709381,11.058818,64.663309,3.80282,1
8.069298,191.004107,16654.50937,8.038213,350.57795,418.200072,12.29377,49.009256,3.021382,1
7.213375,213.767176,27377.699776,6.915301,327.717408,457.511587,17.968736,66.396293,3.453439,1
6.790838,271.601212,14348.572924,9.923315,368.842011,610.62955,9.386799,91.402112,3.43828,1
6.975209,175.421039,35701.15532,5.494254,290.052802,401.058802,10.285283,66.420579,5.256484,1
7.422225,203.323308,40148.123721,5.602314,256.590451,401.775457,9.025661,53.019585,4.486513,1
6.505066,226.419609,16982.131974,6.938467,318.24571,484.092285,18.527105,80.46281,2.890999,1
6.617862,174.280566,33245.630587,7.022187,326.16848,479.920538,15.918912,60.339794,4.601351,1
6.769769,178.331753,16980.258481,7.051697,369.906278,299.404977,18.703657,62.868527,3.846612,1
6.341751,139.959471,18058.320292,8.361337,417.602446,347.464419,13.314422,58.220982,4.019011,1
7.058866,191.548401,16473.067089,8.435789,367.85318,462.993729,12.57442,17.527765,3.937334,1
7.539287,258.490076,26999.382076,7.002092,266.803123,352.195912,14.650809,59.158843,5.427373,1
7.080795,163.16725,36525.550884,5.512927,284.62427,522.600512,14.395519,78.868465,4.645692,1
7.490808,198.966512,6873.559885,8.534329,333.775777,440.471198,11.047456,60.935987,3.716368,1
6.037428,227.033994,12988.791229,8.476905,392.380529,306.386283,7.122391,41.190507,3.594217,1
7.080795,158.695209,8721.231885,8.104498,425.710331,471.073537,15.35395,74.885676,3.392134,1
6.706695,232.926598,27881.504407,7.881448,337.111017,443.208774,14.523389,64.12174,4.371882,1
7.080795,156.38812,26885.834938,4.894281,291.918674,554.22139,14.277103,53.481943,4.709676,1
7.080795,186.365549,7557.021271,9.454207,406.038068,288.368713,12.861417,72.187015,4.116263,1
6.758852,218.153477,22540.775167,7.196435,304.680599,382.5027,18.838735,53.815435,3.639972,1
7.486781,151.202591,31130.212642,4.584071,333.775777,351.575411,18.938528,53.137132,2.748429,0
6.904121,228.960418,10836.969782,7.792593,362.296552,513.188842,12.70446,40.546037,4.141819,0
7.080795,155.262609,42617.303399,5.829424,449.267688,456.185338,20.680975,77.1375,2.846501,0
7.348937,267.655223,15818.26132,10.574681,333.775777,541.755082,13.408146,54.619128,4.725746,0
7.846058,224.058877,23264.109968,5.922367,300.40262,387.971336,13.406737,43.075186,2.487969,0
7.080795,229.620616,19955.710542,7.608653,285.432681,491.880578,11.026909,85.241873,3.113764,0
6.17981,248.833263,15391.559151,8.014257,273.08689,487.625733,9.696478,69.697025,3.704324,0
6.755669,209.362075,13821.55616,7.557415,334.619524,499.070909,19.339143,81.098746,3.959518,0
7.080795,213.652293,28266.755107,3.632114,333.775777,483.797968,15.741911,78.810852,4.31229,0
7.266599,98.452931,36490.143032,7.138814,423.187485,502.883067,7.360772,76.290285,4.952733,0
8.218171,116.06195,22465.687557,5.000451,333.775777,408.360199,6.732794,90.993268,4.246446,0
6.980062,164.12718,17625.466412,6.479558,372.748319,492.703416,11.665753,48.710293,3.969463,0
6.381979,235.94511,18982.953763,8.286514,333.775777,511.485157,16.183542,77.839521,3.299047,0
6.648005,191.841801,15176.290678,5.661663,333.775777,471.047129,15.438287,56.532387,3.829784,0
5.899937,205.913786,30379.359441,9.446148,312.28321,512.336528,6.306055,55.065243,3.858979,0
7.260904,189.077962,21391.162544,6.576866,356.622222,390.285266,14.391606,81.082456,4.383823,0
5.575921,223.374007,14553.132308,9.689175,234.609808,252.968328,12.249489,59.523003,4.294448,0
5.467401,197.028926,12883.163531,9.264883,347.421266,355.175712,12.762546,67.159532,3.717823,0
6.090016,216.736232,12558.897973,9.2973,317.983236,409.427236,10.754842,30.965844,2.943522,0
8.205447,145.797317,17981.254776,6.58046,359.392567,420.394223,15.856797,100.712306,3.739922,0
7.670506,123.336644,33843.619447,5.216369,390.745825,462.967639,18.69873,82.904657,3.933826,0
6.791097,209.128163,20149.179673,5.804,288.356856,291.304212,12.327335,57.303577,3.08404,0
6.006769,226.874099,20279.701038,8.166416,225.516628,275.986595,9.650786,52.640025,4.034755,0
7.080795,204.384794,32951.316369,5.995277,324.50519,339.641882,4.473092,71.190496,4.90523,0
6.336343,214.071982,14619.627261,6.584414,315.996793,370.795604,12.219411,83.668879,3.788803,0
7.473235,223.264936,19932.585225,5.770107,317.708854,590.325126,13.556911,89.453575,3.877714,0
7.080795,214.193078,21671.278302,8.27294,333.775777,473.415378,15.706894,73.170198,4.246388,0
7.380105,237.922637,16862.543476,7.101817,306.182925,478.654518,13.254475,92.864557,5.030452,0
10.067633,144.613956,39716.131804,4.503366,390.910328,415.050756,17.658794,66.396293,3.776789,0
5.915944,274.263618,6967.735565,10.069435,247.645743,321.236814,12.092167,39.448593,2.585849,0
7.080795,171.695022,38971.05101,8.365579,385.95373,397.441713,17.201608,73.646996,2.643212,0
6.124847,151.691358,15092.017645,6.610788,382.318961,388.137531,16.621959,69.167847,4.211968,0
7.080795,137.253427,20593.933718,3.961111,393.684587,520.410505,19.24955,50.029933,3.302419,0
7.876495,250.896621,15741.081627,8.075738,333.775777,391.258794,16.543869,59.246086,3.913905,0
6.021051,178.223683,18966.363047,10.213575,333.775777,400.56633,12.841828,60.870151,4.661058,0
7.080795,193.167611,20894.400493,7.331568,359.426537,417.424766,16.787145,38.107005,3.818404,0
7.080795,166.696695,14807.413554,6.801861,269.707586,536.336983,13.839297,77.550327,3.434799,0
6.58545,166.965961,30210.250367,9.508299,340.245766,430.078591,23.234326,72.799917,4.27564,0
6.342671,157.046125,21079.606206,7.275078,318.853448,351.024256,14.019149,64.407498,4.582592,0
6.63299,238.324751,12829.092778,7.347361,331.301877,451.734417,19.640923,73.201544,4.360851,0
5.4007,197.918993,9968.962738,7.878998,333.775777,503.896357,17.408922,77.382841,3.555738,0
7.460148,221.343209,25480.91841,6.926943,333.775777,438.619635,13.089086,58.083993,2.413629,0
6.709822,148.253186,20922.154463,4.633574,333.775777,400.342812,18.330856,40.495596,1.687625,0
8.054893,239.139779,28545.355433,5.096894,333.775777,574.402828,17.778015,56.352953,3.52438,0
5.365192,238.291212,16262.939246,7.507931,255.544678,393.533879,12.465043,27.095703,3.180798,0
6.920389,252.352799,11086.259858,9.993376,285.744758,368.629147,17.120803,43.667082,3.277601,0
7.025457,184.484427,31659.962745,5.23202,333.775777,559.002854,14.393046,56.290252,2.927051,0
7.974248,173.750776,26848.629842,6.055534,337.940482,347.748061,13.757564,75.535369,3.195944,0
8.031055,222.628424,18134.83502,8.754513,314.471566,452.970285,12.065963,78.549712,3.33888,0
7.614057,213.691169,17598.20035,8.131319,333.775777,384.087281,5.051695,70.833219,3.437946,0
7.643578,209.860844,21885.503784,9.529228,333.775777,337.632173,8.863614,63.646921,3.762163,0
7.731315,169.049684,38356.226496,6.028454,297.329355,525.879408,16.07112,74.909705,5.164284,0
6.268403,154.681902,23050.331257,6.832938,290.703236,421.220228,13.881357,65.891392,3.389705,0
7.369912,155.644805,19283.402051,5.435025,399.940784,391.324215,18.148562,63.698617,3.821721,0
7.080795,241.18068,25696.320942,5.694557,333.901989,386.298359,14.531155,33.918351,4.142386,0
6.320375,165.821545,20481.642071,7.605958,354.289035,422.341048,14.79396,46.043065,2.728617,0
7.290089,205.213105,26115.616326,5.137891,357.794088,402.874799,7.960478,63.698514,4.700618,0
6.356511,164.618185,17538.541172,8.345192,345.144958,430.959505,15.329438,47.021382,3.415526,0
7.974065,160.224182,29477.764399,2.456014,324.055592,371.211951,18.693915,54.280624,4.069087,0
4.943508,267.533027,11870.424852,8.877869,333.775777,417.412531,15.252794,22.749735,5.070842,0
7.700362,220.571796,29432.208251,6.356294,322.750328,444.957618,13.027439,77.829802,3.786487,0
6.054607,228.198027,10215.812417,5.983974,306.796862,441.4985,17.229149,65.340213,4.889163,0
4.221421,120.56013,34370.197113,7.960888,411.58083,436.774598,14.395839,64.601468,4.278712,0
8.54589,255.324872,31056.578782,3.619779,333.775777,426.883367,13.782989,34.448293,5.036883,0
7.752176,182.064705,13655.680653,6.817247,337.753776,328.217251,15.231129,92.255062,4.725507,0
5.58813,220.817522,8730.312436,8.321897,300.220428,412.708557,6.478626,80.637806,3.165618,0
8.649869,178.588753,18503.766525,7.24082,356.26308,329.504191,15.280653,83.783477,3.081681,0
7.899257,187.700654,32210.816301,4.996763,320.532363,400.149806,19.873604,46.913342,4.448171,0
5.952268,136.890531,28105.964887,7.330958,389.809746,423.963995,15.37378,68.969793,4.769768,0
8.040188,201.809216,11861.550852,7.20031,300.398435,420.549219,7.168607,90.761776,3.221139,0
4.313219,191.119337,12770.83183,8.231574,284.945949,499.854797,13.501271,76.443961,3.92359,0
6.707017,209.778805,14794.4114,7.809292,333.775777,553.644459,8.027568,78.23718,3.165632,0
5.853561,186.807751,19790.856926,6.615781,333.775777,489.796888,19.670703,65.040007,3.756874,0
8.817403,175.754971,23173.31953,6.730861,367.154184,552.074544,7.733109,91.443356,3.864098,0
7.080795,171.43498,39207.589248,4.71051,354.444609,381.685417,20.212088,97.418886,2.812504,0
7.080795,193.577157,19671.351229,7.568897,342.673409,322.735685,18.511586,77.710307,3.481517,0
7.476408,246.184719,27109.895609,9.791961,341.163631,339.729988,16.21768,77.603021,3.478194,0
7.691486,155.185319,36578.223745,7.690728,405.169386,536.889589,16.214966,77.582051,4.042497,0
7.367372,176.33521,16663.602507,8.062783,333.775777,354.76494,10.682921,37.363371,3.817215,0
8.927906,188.054419,22139.878848,4.252721,376.334566,438.515587,8.597973,92.828321,5.474355,0
5.621227,221.64944,11123.886159,8.809433,314.871342,326.350873,19.312536,84.377323,3.440753,0
6.450645,201.596673,27682.507446,5.655139,316.105892,573.033779,14.642709,66.396293,5.241539,0
7.566517,205.396582,30823.73049,7.816636,354.175972,395.297275,12.095251,63.767702,3.275142,0
6.115638,240.975156,15765.786718,10.088345,339.40244,407.319539,21.305048,63.071597,3.723625,0
7.595229,188.373282,32869.474408,6.745588,365.208692,326.627131,13.883329,73.43822,3.497604,0
7.080795,279.232419,11380.298636,8.586101,314.162602,467.628073,10.880028,68.975176,3.256275,0
7.131222,165.90902,18969.824888,7.690363,333.775777,510.982329,16.427739,47.137,4.713193,0
7.399725,258.019947,18535.046452,5.497159,339.838977,354.667312,14.979,73.008496,3.795124,0
7.00248,168.952591,20518.555433,10.135987,333.775777,457.646782,9.812921,56.921862,3.352436,0
5.345345,238.51023,10315.353973,7.822601,281.771707,496.350875,12.624613,87.342833,2.362886,0
6.185951,174.796123,22198.92942,7.608496,333.775777,479.091845,13.744284,51.497112,5.205724,0
6.070091,161.530266,26764.49443,6.241527,333.775777,485.866258,18.78052,81.946106,4.699457,0
7.095569,196.734927,30235.170803,5.984901,308.203694,453.954757,16.062739,31.55501,4.861276,0
7.080795,189.761654,16737.108219,7.031424,333.775777,410.479734,14.545465,60.140117,3.092817,0
3.928556,191.665998,17328.161457,7.692417,306.479558,406.085614,9.578602,45.480738,5.060836,0
6.352973,244.846717,13858.703936,9.179442,333.775777,403.560482,12.520126,59.046994,4.155495,0
5.999125,219.716109,19345.791332,6.029641,264.285069,497.477151,16.381195,46.303523,5.046973,0
8.899588,208.106548,17915.085972,4.793575,334.571785,381.159354,14.39874,48.299497,3.928614,0
7.375338,194.868083,28767.757423,5.074146,349.985243,495.037067,14.247682,77.094234,5.127395,0
8.979323,184.309222,24967.322998,6.264584,335.216928,485.583188,8.280181,63.944178,4.264944,0
8.532377,216.454108,30268.421272,6.29897,330.978466,436.164975,11.8957,55.921827,2.380088,0
7.213537,176.640063,34727.408564,5.162278,287.706912,332.199507,10.327476,77.261468,3.497481,0
7.080795,184.666891,14368.128161,8.129912,334.753411,472.329995,16.073449,73.710218,4.58311,0
8.895574,107.383327,27622.746268,6.16332,460.107069,444.929584,13.995136,78.348415,4.754235,0
6.582764,219.184814,21961.526917,6.987978,348.900016,341.209936,15.178368,68.981966,3.66888,0
7.080795,204.240569,14665.404798,8.58132,360.388798,359.622187,15.163179,58.945605,4.377502,0
7.080795,160.59576,49125.360084,6.34439,409.501953,327.924561,14.407555,64.644993,3.287617,0
5.986594,275.886513,21229.083313,8.94043,333.775777,354.11186,11.783383,92.227733,5.051494,0
6.841221,166.67695,28263.80372,7.115715,318.790202,532.184741,21.469491,78.227748,5.092365,0
7.080795,157.827352,21716.423692,5.406394,333.775777,478.998973,18.928979,80.202845,3.82577,0
7.146117,181.434419,33266.571575,8.381738,373.197146,485.109215,15.46998,52.812932,4.775202,0
7.080795,237.705681,21862.753609,8.961425,318.172687,434.388304,11.665329,59.775642,3.943291,0
7.507575,172.504021,18328.695899,6.907736,351.418634,377.075133,10.678255,68.852196,3.703001,0
7.997176,214.819627,20575.57316,6.191399,312.008094,513.540398,17.703104,70.291214,4.817668,0
5.174346,234.328569,11746.607522,6.961265,314.9868,407.102302,13.77168,36.183536,3.689145,0
7.080795,191.150479,23172.28151,7.132154,290.70917,365.140579,12.679501,69.074438,4.018447,0
6.479093,180.958667,28165.87256,7.160084,371.405407,370.289838,16.942566,66.396293,3.089597,0
7.811512,258.891601,20911.904666,6.361756,289.142175,421.133035,9.63165,71.703227,4.54607,0
7.437217,242.729969,20185.587156,6.121662,306.169251,413.655951,10.262778,64.529185,3.866875,0
7.953878,178.06655,18677.279222,5.69954,368.21768,356.294341,18.638603,61.462807,2.860224,0
6.39657,243.724707,12278.98528,6.794551,333.775777,489.449305,17.638039,66.396293,4.18825,0
7.080795,208.367046,22444.090068,5.404248,338.06369,540.89954,9.980418,84.570083,3.594444,0
8.058136,191.277932,29298.359492,6.129173,356.645254,278.502633,12.606204,65.511361,3.130609,0
7.080795,149.8389,20283.783629,10.005871,383.113114,355.184935,17.003495,53.79972,2.028875,0
7.080795,220.985158,26492.716181,4.949787,333.775777,388.969021,21.08555,70.266355,4.875383,0
9.497261,124.48281,33681.33014,4.814656,427.184508,530.217008,19.970318,49.809841,5.242105,0
7.984711,121.067357,40709.781663,5.796841,445.359547,338.509984,12.818816,59.269193,4.56788,0
6.261111,270.466171,8572.421509,9.922076,286.327562,490.942651,12.926435,22.219327,4.753019,0
6.957803,219.239952,20215.632849,7.054093,306.647384,431.370662,17.427145,56.435646,4.587745,0
9.663159,131.711896,24387.968071,4.234143,333.775777,428.906432,18.143474,65.360465,5.270218,0
6.732714,197.766974,33820.64576,7.396764,353.176328,321.364518,19.340499,85.371961,3.885405,0
4.886057,272.920385,15496.611719,6.985179,266.562211,569.581288,17.301536,79.597988,3.079373,0
9.61022,156.929546,33954.435471,4.639028,333.775777,485.379156,11.047844,66.396293,4.961972,0
8.518532,128.263466,32018.289631,6.05874,458.441072,554.139037,15.976196,87.471821,4.147169,0
6.950787,201.805491,21709.647709,6.120771,352.303771,417.184446,19.683493,49.236809,3.997975,0
6.023023,170.732289,10925.360104,8.200973,305.796529,508.851053,12.244622,62.967793,3.668089,0
9.01148,167.918922,34865.357682,3.139553,400.691774,385.409608,16.57419,50.526551,4.270801,0
7.946768,277.116946,24244.111963,7.561176,273.384311,306.837402,11.796235,70.019666,3.038483,0
7.709617,189.802914,32910.525182,5.758056,367.761858,397.845566,15.240349,66.396293,4.140424,0
6.081615,209.05968,10120.11268,9.406774,333.775777,410.50909,7.996295,101.158675,4.010037,0
8.146186,191.38241,20506.698418,5.476949,333.775777,445.931207,9.416902,57.363647,5.177964,0
8.141861,210.376561,25433.465015,8.390812,385.236656,321.867474,11.483524,85.300717,4.13695,0
7.703357,211.344687,12861.946542,9.245306,347.630834,598.662877,10.542342,91.118698,4.732125,0
7.080795,149.042846,27687.737646,8.660711,284.945759,288.517697,15.736642,62.757307,3.771305,0
9.252857,168.040751,50279.262429,5.905056,415.45081,400.003589,11.949854,62.256881,3.300586,0
6.047651,177.444264,28633.846385,8.174385,333.775777,386.661205,15.51493,30.55631,2.589868,0
6.152858,171.125287,24978.483177,8.216486,323.824376,406.094427,10.881215,65.714718,4.403083,0
9.074923,184.915055,21633.721727,7.427381,394.196521,339.355333,6.658139,66.396293,3.840479,0
7.436537,167.328466,31935.690705,7.896365,333.775777,398.574215,14.824433,69.252783,4.497629,0
7.080795,259.671041,11949.597926,9.435446,279.001004,469.287631,11.752421,73.997046,3.458352,0
7.130099,275.67978,9480.617796,8.415948,295.618838,383.455068,18.322879,94.416301,1.986192,0
6.792125,165.794286,17782.604408,4.970601,307.752703,370.600578,15.138094,96.600542,4.042638,0
7.080795,230.430762,14916.986091,9.618516,333.775777,379.172804,28.3,79.633064,3.864931,0
8.885626,171.839777,19113.011912,6.503297,404.104312,399.672556,17.623594,76.831226,2.993301,0
9.475316,149.558089,32568.1535,5.33386,333.775777,436.203113,13.927946,71.834058,4.701538,0
7.080795,168.963026,21030.234531,5.564002,404.343077,440.952071,12.352722,72.033644,4.691018,0
7.183109,225.116079,5097.82585,6.081664,361.631381,294.991225,5.537059,81.453941,4.006425,0
6.157443,155.835706,25937.711438,8.163144,298.192406,533.288351,14.356496,68.120761,4.770154,0
6.467868,236.694648,7656.413248,9.840949,214.460834,356.347842,14.412734,54.641176,2.861064,0
7.080795,162.935371,24916.625585,6.374496,388.312725,494.288784,14.297696,84.80297,4.301273,0
7.488133,177.353052,24786.050528,8.613304,369.210671,387.868075,14.149473,48.965996,3.474035,0
7.323545,184.13607,21044.202663,6.842947,327.261202,379.492453,8.335245,90.312062,4.898421,0
7.080795,253.662037,13568.271201,9.228603,256.089517,554.573662,13.711737,97.714049,3.067034,0
6.530796,138.007672,19174.59325,7.347952,333.775777,490.644138,16.337949,66.396293,3.181635,0
6.93147,156.841195,35793.757787,7.286336,384.654803,398.647944,17.858242,72.236525,4.249333,0
7.774645,194.733858,13829.93907,5.60312,333.775777,321.905681,18.870939,66.396293,3.911817,0
8.1075,173.664679,27277.579964,6.64362,354.037293,330.211515,16.257002,66.396293,4.647801,0
6.306864,220.96998,22418.908189,7.153364,283.975993,350.909227,19.861382,61.836185,4.619173,0
7.080795,165.737953,22900.118251,5.735689,379.374933,473.804911,13.082872,63.035163,4.069166,0
6.60968,216.428032,17963.866845,7.725314,346.285329,466.103008,11.468432,41.252869,3.589146,0
6.632206,232.738545,9809.904,8.336778,302.325772,458.366785,13.304852,65.318835,3.443741,0
7.080795,247.164018,18939.616461,7.086375,305.040026,419.453088,12.758114,60.319203,4.287441,0
5.716756,197.10421,12641.527809,8.702061,287.012564,345.083936,17.273966,58.411515,4.080675,0
7.740454,182.541073,19713.504368,8.854386,382.34159,489.047044,8.866967,57.877455,3.541317,0
6.277277,148.186013,22916.572242,5.035633,333.775777,474.617954,9.604155,61.835712,3.619321,0
8.006373,116.725122,45041.149139,5.165292,333.775777,367.688991,13.425165,87.381981,2.396505,0
6.513017,185.33854,26262.545482,6.74215,289.014348,410.101309,12.924653,83.65219,3.729961,0
6.234198,227.560867,22195.210384,9.455598,333.775777,351.180101,13.039764,63.163969,3.885492,0
7.277144,194.880861,18270.105061,6.121931,344.879754,402.664582,15.459752,76.987232,4.931354,0
6.044513,211.577378,30191.692457,7.714292,329.167018,431.096425,10.619831,66.396293,5.127778,0
6.643027,205.233119,20511.36924,5.908111,313.353813,455.693256,16.021941,52.153472,3.709989,0
5.150457,186.560846,18655.541892,7.024307,333.775777,379.537937,17.604066,58.831969,4.147029,0
6.110545,166.637305,21319.794397,7.681245,311.253565,340.630642,13.623813,95.49468,6.064559,0
7.831118,182.473876,19130.961531,6.803061,340.275949,433.460437,10.793996,75.8957,3.807997,0
6.980727,200.467226,30862.784459,6.196276,391.666878,422.489596,9.066902,48.250468,5.437619,0
8.552782,217.803318,39030.603705,6.986705,373.746193,340.566245,19.084883,53.856055,2.940848,0
6.449379,275.746716,8607.61251,7.70163,272.197565,384.380669,16.078305,54.404461,3.715429,0
7.392084,173.528778,20185.676229,9.120931,384.117247,310.074851,23.317699,81.129543,3.778458,0
8.360796,218.139622,28722.175847,5.536705,310.286577,471.553595,10.644554,49.771941,3.715951,0
7.619845,113.504698,37279.12895,6.36007,377.875193,285.349943,17.030429,48.92914,3.779648,0
5.404511,258.903489,10168.176536,9.648197,248.711963,396.911214,15.512208,65.805331,3.998176,0
7.079304,137.007355,24282.154769,5.705693,433.6339,342.725318,9.113945,88.328605,5.553174,0
7.080795,233.846621,32496.640216,6.637384,347.986448,424.649773,13.028,55.983973,4.296189,0
7.161715,238.333584,13680.764138,9.27412,284.407842,478.76697,16.836291,74.38358,3.909974,0
6.854947,149.853487,16203.090697,5.734804,375.71866,350.344708,11.718895,75.498737,4.938999,0
7.309556,244.83977,22277.626022,7.715572,369.038841,477.235381,12.475119,60.806902,3.707414,0
9.313466,133.141751,41982.610655,6.628037,417.245388,267.801711,10.36823,75.436147,4.493613,0
7.080795,216.271624,26964.317181,6.383548,418.494244,573.159591,19.89268,50.170522,4.501025,0
7.080795,250.623473,30797.519999,6.381452,333.775777,338.814165,17.508516,74.727821,3.365174,0
6.187938,249.527111,12682.150941,6.253224,263.268416,274.764703,14.352955,57.623368,3.546183,0
7.080795,240.984187,11429.201199,5.515977,267.680826,323.157517,8.666283,88.679265,3.802427,0
7.965337,151.541889,25274.610305,7.106043,352.316182,527.688242,15.792625,52.26849,3.390982,0
9.264391,160.428694,19607.754919,3.988749,416.698385,427.793834,14.99299,95.8048,3.175521,0
7.754044,193.449854,19019.279505,8.107067,377.990009,597.486041,8.939818,45.721308,3.760298,0
9.393892,252.739248,13150.207459,7.166592,333.775777,368.834604,14.397393,50.775293,3.048566,0
8.17608,201.553701,21856.988628,5.241047,320.26012,464.80333,15.627641,61.654744,4.112322,0
8.337696,168.469181,30969.047593,5.452162,333.775777,302.422318,14.529864,41.392768,3.454197,0
7.080795,207.426887,11963.323716,7.664546,325.63296,502.053001,17.012856,64.499826,2.813527,0
7.191025,151.306674,23781.32874,9.214409,403.78843,465.126838,16.884214,77.515444,4.270646,0
8.613699,235.944436,20862.455871,7.622565,378.758715,418.69753,13.608075,66.396293,3.94922,0
7.793039,257.657739,17398.385843,8.271246,251.383944,439.7016,9.557031,54.235433,3.38927,0
3.878879,177.712841,21937.471569,7.369769,299.241624,447.303756,12.451912,63.163113,4.927711,0
7.080795,164.317102,25236.701316,4.365238,350.584345,413.692225,15.421144,45.979402,3.723776,0
3.978285,160.818474,14433.780496,8.410892,311.295329,414.328215,20.771485,78.27324,3.751566,0
5.964065,241.030899,22168.331561,6.208118,333.775777,486.516884,13.172989,64.71924,4.696721,0
7.532059,185.506563,24454.725864,5.791102,333.775777,393.97189,15.070248,74.780643,3.80857,0
7.233538,231.560832,16621.494789,6.073041,333.775777,475.821645,8.688715,35.833969,3.679015,0
7.080795,202.811142,11900.055203,8.948088,367.533453,379.564564,13.591858,58.82256,3.1538,0
7.080795,115.392979,46077.358485,5.289307,437.5923,422.017356,10.809632,53.617035,4.212511,0
7.480728,117.057314,28357.942774,4.702821,414.855784,472.059339,18.340212,76.344581,3.714875,0
4.477092,236.28249,26843.470364,4.842658,207.890482,456.979772,16.225706,74.035695,4.32768,0
7.080795,207.391097,25110.037626,6.329791,345.592634,420.219104,22.346415,92.32776,2.739235,0
7.080795,162.263688,28790.547685,7.621234,377.719387,364.273578,14.210091,99.118601,4.476991,0
6.314077,124.847992,31114.635653,5.71394,333.775777,396.672976,18.423226,73.101997,4.363866,0
7.080795,233.693837,17317.687251,8.946504,264.916046,311.974234,10.749107,108.589414,4.241936,0
8.82261,216.432576,27109.239652,7.322163,333.775777,384.018547,15.955491,78.828883,4.415596,0
6.922652,185.818989,14682.665838,9.886831,341.066404,560.787703,22.466128,64.395422,2.877354,0
7.080795,169.673531,25541.152765,5.457299,393.2647,359.778134,16.820308,60.376041,3.61133,0
6.904537,110.865788,32981.258377,2.621268,368.387038,417.249395,12.11872,33.499381,5.058905,0
6.548018,176.006536,38368.012618,7.415054,278.093309,291.121528,19.422535,81.368568,5.930228,0
6.581083,217.538504,24480.671795,5.837152,310.63291,476.458667,11.434239,48.55191,3.51137,0
7.86465,218.153107,23045.726247,7.432011,349.922852,414.365149,14.785983,72.60798,3.585934,0
6.136907,151.784319,20561.694731,8.487856,384.156079,363.618492,13.713703,96.582865,4.704585,0
6.947029,168.879539,17540.030217,6.409476,387.299907,372.022817,15.198191,74.007373,2.600188,0
6.203323,214.850111,29426.47378,8.034868,369.726683,319.766681,10.247863,65.308637,3.48792,0
7.080795,240.134572,38097.329796,5.400497,333.775777,359.576334,13.514887,72.771017,3.212493,0
8.373171,179.521406,22022.626217,5.215042,339.492222,396.696697,13.697087,110.43108,2.78633,0
7.080795,205.304149,12190.171602,7.044833,313.411708,374.523197,11.838313,47.653642,5.026271,0
5.921247,200.94373,17397.402858,6.7562,279.202307,380.499818,11.255357,31.966297,3.746776,0
8.829806,216.122144,17732.91467,7.856312,377.253834,301.895959,16.210713,64.409359,4.423886,0
7.080795,187.613438,13427.068591,7.31757,333.775777,507.567488,18.137691,79.349881,5.324638,0
6.832217,164.274393,14015.044769,6.055985,281.67804,389.978097,14.836637,44.367574,3.145416,0
9.281303,215.907625,36622.228606,3.903496,333.775777,383.260028,19.034877,80.317597,4.069977,0
7.456251,226.538289,9163.294448,5.726224,333.775777,417.12521,10.066076,67.304224,4.279697,0
7.088251,172.6893,25399.109006,6.941217,355.253079,298.671759,13.637783,66.396293,3.230645,0
5.648629,167.030097,14547.885478,7.735348,333.775777,347.792321,10.689769,75.288688,5.370004,0
4.293961,192.360737,24600.760691,8.261635,261.357041,475.876415,10.799428,53.619847,5.105121,0
9.678051,188.368741,26402.703957,4.074141,395.904208,325.001116,16.917994,91.41688,3.0297,0
8.66271,173.531947,20333.079495,5.636388,439.787938,459.63312,16.283311,89.924253,5.120103,0
5.897391,172.034385,30575.357138,8.649615,393.554892,426.505834,16.311658,74.543981,2.961602,0
9.494243,274.828369,21879.704208,5.265718,364.682634,581.078156,13.636014,62.119643,3.189026,1
7.080795,173.474186,18318.720372,7.597654,282.598119,407.642962,20.200592,79.104019,4.181264,1
7.080193,185.825726,39431.112653,8.806393,286.223876,355.937596,7.781493,39.623835,1.492207,1
7.559852,244.294558,29567.698929,8.64788,333.775777,278.475586,10.046943,107.610806,4.550501,1
7.040395,199.079217,22505.518597,7.953572,333.775777,531.476666,14.690954,58.41286,3.931917,1
8.053044,211.783235,37086.546054,8.267537,251.4435,512.899036,19.16662,73.248984,3.301575,1
7.044375,229.603173,12575.279627,7.837778,390.467684,558.176592,15.754785,36.26753,4.276699,1
6.309892,133.649925,31062.371915,6.975602,252.108925,381.058776,17.200008,71.181544,3.60304,1
6.203573,139.129083,6698.239095,3.876813,333.775777,601.526167,13.368165,68.298689,4.305549,1
6.879405,214.731887,20509.331962,9.03525,321.383278,306.784302,12.477303,79.69208,4.70047,1
7.754884,210.720769,18857.058497,5.693752,376.484622,375.672691,14.708599,43.29982,5.12839,1
7.91667,201.455808,39431.252632,7.525441,276.20692,432.589996,17.821922,70.239601,4.275193,1
6.405392,183.867245,20526.306835,8.450272,366.176634,548.637702,13.448797,69.054138,4.531921,1
7.795958,239.278255,27849.142088,6.475994,356.170702,484.104784,18.692248,50.128415,4.251876,1
6.963979,180.401506,12878.176354,6.424099,333.775777,358.516477,16.329625,66.302629,4.48987,1
6.967861,183.933476,13401.044394,6.457687,371.788364,433.239429,14.584231,66.029156,4.893215,1
6.622791,195.867117,13900.716523,6.363538,387.356938,310.851138,11.758374,52.406188,5.609291,1
7.369989,236.476721,18998.346823,7.404435,359.930566,357.066203,18.020331,58.271257,3.463852,1
7.080795,134.31116,8076.822283,5.322112,333.775777,599.614535,9.253351,100.335665,3.373937,1
6.944868,198.476439,16904.201091,6.341407,299.521673,470.599761,15.045817,61.146087,4.241135,1
5.28481,148.862758,11130.211365,6.820469,335.66045,485.805431,13.77335,60.944343,3.990243,1
6.851443,197.339559,15349.142585,7.446412,333.775777,373.549867,11.367275,79.155822,4.935557,1
7.760189,206.208834,34250.163925,7.930382,299.131598,347.18078,19.350765,80.621872,4.590528,1
7.28056,228.539543,29690.917158,7.871025,322.269661,392.532597,15.168189,84.370713,2.919796,1
6.83426,182.454462,21670.569891,6.407648,325.950411,397.337508,16.506658,74.462646,2.658843,1
6.728975,187.202712,26376.062287,8.457662,337.861922,488.976394,17.689785,77.131889,4.593787,1
8.016418,255.259493,30854.830468,8.761916,333.775777,442.499532,11.094202,93.274232,5.320015,1
6.864917,170.827792,20464.772694,7.074063,365.941346,400.96527,14.003874,51.603004,4.493747,1
5.808976,157.552238,7965.207918,6.680188,262.995756,377.697283,17.401039,69.461111,3.599933,1
8.458797,241.76834,29317.14244,5.783275,313.885548,328.579429,18.296001,84.510985,3.827431,1
6.987335,224.034417,13505.033116,5.87118,333.775777,479.825497,15.921413,73.064218,3.870293,1
7.288737,233.97781,31617.075415,8.533888,331.838167,490.047095,12.225342,31.802024,3.531385,1
8.11635,224.763509,16514.608092,5.290691,333.775777,416.596634,12.063501,91.856156,2.526016,1
7.463916,215.479068,27150.3954,7.782915,382.958737,403.703502,14.777092,56.956939,5.075844,1
7.512361,224.471654,17895.556585,8.635031,333.775777,472.342125,13.848389,74.582981,3.515803,1
6.415108,192.427965,19310.062011,6.8453,333.775777,529.730312,16.021439,62.533557,6.073006,1
7.05994,178.80538,39484.638921,8.591113,281.386197,520.272861,10.795482,75.847542,2.949939,1
7.080795,179.756708,25703.155201,7.28731,333.775777,311.093065,10.238271,42.075315,1.659799,1
7.425102,204.486282,18608.940874,7.434493,318.183297,338.935271,16.244755,94.605311,2.558773,1
6.742622,209.217344,15488.956748,7.452362,351.052242,408.853562,13.921282,70.205241,4.964673,1
7.682923,217.788932,31150.513421,8.021668,333.775777,594.702546,12.194232,77.169789,3.542731,1
7.041665,178.285749,25419.769498,6.772751,316.433854,388.339277,11.557097,73.25622,3.099746,1
7.185276,212.483172,25645.067233,8.142513,352.869165,435.282981,8.930242,75.60098,2.959154,1
6.597292,191.787442,25039.354696,7.294577,395.739529,501.532653,14.695391,80.050031,4.318305,1
6.908853,184.944232,16965.314109,6.404354,351.345326,434.350219,11.812942,77.371361,4.693949,1
7.080795,169.775475,37273.429223,8.02783,240.897629,454.543765,18.621698,63.519516,3.573741,1
7.080795,165.89297,11566.875548,8.326155,333.775777,369.289777,7.401868,66.68695,3.60309,1
6.281904,160.306685,17095.27007,6.730577,305.094,424.446185,14.374967,41.27983,4.45773,1
7.036752,210.369104,13812.410421,8.378282,342.498361,489.545055,14.823904,69.193358,3.285372,1
7.362913,180.867801,20430.906697,6.664786,333.775777,437.389526,9.675167,69.035113,3.24944,1
7.369087,198.204082,28232.018406,8.899712,289.599692,424.454254,18.156754,31.599404,2.715187,1
7.70811,188.99785,15456.220086,5.047916,322.754599,523.052663,16.090193,57.285763,4.896626,1
6.504113,171.722555,20852.764496,7.70499,282.105545,359.46095,13.475273,83.62226,5.396623,1
8.185923,240.979104,23641.472028,6.611449,318.68901,410.158222,13.109911,56.913981,3.566945,1
6.149185,150.563594,20596.391231,6.906911,333.775777,431.651283,12.82938,64.394907,4.275615,1
7.080446,196.658947,36966.853319,8.986784,294.315733,530.052919,13.822057,85.777222,2.664946,1
6.628427,215.245532,18059.330852,6.931787,333.775777,374.455062,11.621074,77.940822,3.405279,1
4.704698,160.211822,5128.457646,8.283069,357.731077,344.69374,14.219532,34.288413,4.109925,1
7.976901,234.77938,15360.835068,5.736027,377.178119,613.633548,14.191274,48.915881,4.753608,1
6.809645,179.719521,35001.144792,8.681983,333.775777,360.932804,13.63335,72.71792,3.183804,1
7.080795,177.685356,20325.702131,5.84957,353.626768,279.66492,13.964321,44.542985,4.032267,1
6.967697,177.05589,22886.965735,6.430935,315.282902,507.790062,15.288038,35.767601,4.819637,1
6.444555,166.63518,24855.830042,9.492361,287.41238,479.479409,10.697068,65.655326,3.551905,1
6.277742,149.563282,15751.44915,8.257751,317.50144,605.398375,15.218378,82.70347,5.255012,1
7.080795,166.92298,21190.154943,6.58998,285.899385,410.688297,15.290614,75.595222,2.505464,1
9.014357,225.367519,49009.924656,6.002653,296.630899,445.768812,16.254112,83.891129,4.549419,1
7.781664,216.782881,35055.61649,7.784203,306.643336,447.167101,10.609545,36.872086,4.822967,1
6.08436,155.271425,27310.060848,7.817129,333.775777,436.988934,12.657512,66.396293,4.298111,1
7.154736,198.147326,32680.977991,8.972661,283.108492,531.602634,19.806287,81.926826,4.629956,1
6.748812,166.390915,22475.09296,8.895422,317.620346,527.45964,12.81927,55.536263,3.312513,1
8.12827,231.167537,19954.575554,5.138838,349.067363,386.071149,15.018085,63.340968,4.678742,1
7.080795,205.235194,22613.297485,6.48581,266.639384,313.009639,11.623605,28.400877,3.978495,1
6.335683,164.070372,26594.352076,7.381256,338.429462,607.102573,14.92915,113.048886,4.578861,1
5.940476,175.63773,17177.071037,10.410835,307.997631,402.887309,15.152004,74.354423,3.99797,1
7.614878,246.030856,33347.971098,8.222533,345.808809,445.766853,10.763691,98.368656,2.990781,1
6.718249,197.617494,21043.626929,6.630675,337.038752,641.525845,15.554506,63.684352,4.488904,1
6.866357,185.631487,13979.38175,7.043425,375.434032,462.535115,17.194992,74.55779,4.346154,1
7.080795,142.277413,21208.618285,9.502685,333.775777,429.690156,16.292718,58.962902,2.601518,1
7.553845,212.264441,14319.40137,5.793012,362.852654,450.53591,18.176483,66.396293,4.374564,1
7.366672,234.200641,15547.186626,7.8514,364.105692,393.253915,15.161577,64.732311,3.39445,1
6.56776,187.666379,20156.578623,7.29851,333.775777,390.426889,12.353896,85.214369,3.824428,1
6.33364,185.43634,18506.288609,6.572682,356.971033,366.813108,16.439629,76.764385,3.982002,1
5.892413,139.362253,11006.048507,5.31199,339.327905,446.494394,10.567071,89.692883,3.311813,1
7.918039,197.357588,22899.062914,8.283955,295.35107,358.097386,12.957785,71.694351,3.38611,1
6.549125,194.276857,7412.798059,5.83698,354.821194,361.037238,11.672191,57.316977,4.421059,1
6.804796,223.995701,17196.054711,7.112622,374.309131,344.718314,15.457383,60.151346,4.847313,1
7.080795,203.05431,20106.10684,8.68233,351.335696,346.030544,11.556302,62.951527,4.704273,1
7.176171,206.294901,25794.95019,7.794727,321.284079,485.25443,15.574877,49.15196,4.742967,1
7.085096,206.676675,21823.094256,5.889945,333.775777,387.618111,17.679898,55.023286,3.932839,1
7.201702,147.711086,37308.994159,5.677451,279.164446,395.976824,13.326125,63.626894,3.88325,1
7.776044,215.533795,38895.356136,7.764668,342.262498,349.431099,6.124625,65.83299,5.425946,1
7.080795,209.751955,20214.216552,6.045078,323.788383,539.464723,20.27899,72.735207,4.258489,1
7.046549,128.482517,30569.810551,4.449123,281.724714,348.264591,15.142006,58.157304,2.869226,1
7.080795,199.845875,12635.367704,7.886383,332.615154,293.834264,13.217536,54.549618,4.480574,1
7.73288,189.509811,47022.745845,8.226725,287.087053,567.722281,14.980054,71.206209,3.510728,1
6.2668,187.829617,27577.213623,9.141597,322.917848,277.050802,13.290252,59.454325,3.652845,1
6.630252,160.920384,22557.779576,5.305394,338.630828,416.898071,15.793101,53.276033,5.181202,1
6.775631,154.372543,15525.393963,6.084133,343.032161,597.979274,17.118543,56.124024,3.017544,1
7.080795,204.737292,25680.717388,7.980193,318.677273,311.635574,20.376838,69.02053,4.323785,1
8.164992,278.340358,29045.261138,7.992914,334.551966,384.783185,17.406626,64.210767,4.162496,1
7.773758,251.462844,21688.616943,6.19491,395.088245,355.831683,14.324552,67.584311,4.040974,1
7.295141,182.406645,13706.186808,5.887885,300.608233,424.650179,18.06347,73.836909,5.056104,1
7.080795,129.883297,8906.975623,6.827901,327.551789,525.224717,17.657411,32.185378,3.842114,1
7.657542,230.820008,35056.232234,7.656807,364.130141,305.629409,18.481396,72.205075,4.792527,1
7.664794,223.578473,20259.72585,7.385414,351.161331,510.046897,14.205221,73.19247,5.481691,1
7.080795,209.866095,20116.911103,6.941062,370.383694,338.957198,11.342562,51.159669,3.619546,1
7.800421,210.670304,19873.300918,7.284676,333.775777,448.595641,7.024747,55.803503,3.34591,1
7.264069,216.622392,19412.112723,6.932458,333.775777,301.953551,19.210991,67.712585,3.960282,1
7.544306,211.051146,34359.400797,8.166793,365.812313,447.520655,18.553478,60.162746,3.714096,1
7.749774,229.489767,21995.068068,7.748921,320.440664,398.544763,18.202916,41.064247,4.317186,1
7.442023,194.763871,34565.70169,8.493348,294.836218,350.085116,18.962014,79.958321,2.894651,1
6.559253,164.635921,30660.209666,8.85227,272.524263,533.583858,10.958306,83.662331,4.216315,1
7.035037,220.501888,19746.493251,7.059383,371.912615,536.1839,15.303433,67.901758,4.557029,1
7.880686,226.003844,19486.881839,6.208574,356.338079,472.369094,11.995239,55.029166,3.579984,1
7.498372,236.714399,21736.373324,6.588566,407.312082,299.194245,20.737664,68.314347,4.242242,1
7.080795,200.969922,12700.488039,7.713783,395.090364,464.024917,15.089339,63.624565,3.7561,1
6.538207,214.992866,12330.406568,7.300092,389.817036,465.352665,22.089402,24.532773,3.426266,1
6.373288,180.958905,17502.879442,6.471639,367.73252,411.58131,11.598646,66.396293,4.538109,1
5.756476,171.971804,8086.825999,7.304628,330.133777,442.758756,11.364751,95.898495,4.002082,1
6.918062,188.912865,14052.446112,6.192193,333.775777,338.32084,17.860101,66.737031,3.566298,1
8.813505,236.392817,40684.390014,6.608775,303.529818,278.355123,14.576057,72.872697,4.24246,1
7.3616,231.793183,29169.720783,7.929904,375.097188,389.272645,13.853116,39.532787,3.751589,1
9.175586,281.594235,47852.888871,8.330276,314.783761,422.318227,9.969136,64.070548,2.959685,1
7.080795,192.742275,32349.102378,8.75063,272.085057,581.981191,13.583036,64.436046,3.952594,1
6.550877,145.806271,25070.008739,5.716379,285.218943,369.613084,8.654765,66.396293,4.824826,1
6.510856,223.860622,15147.171464,7.667533,389.391148,437.051364,12.085026,52.339075,4.225608,1
7.34703,199.613721,19073.259595,5.766832,336.994335,413.21423,12.482482,56.794084,4.297881,1
8.111953,217.266472,38184.469574,7.254122,311.910224,281.069203,13.027921,78.582094,4.43075,1
7.080795,237.083948,35434.280062,7.617649,381.337527,365.032503,13.453872,33.439868,3.825937,1
5.985012,151.360967,20155.434469,7.723292,275.079738,478.33236,18.016266,99.061233,3.7641,1
7.080795,212.705332,25626.48105,8.590184,338.663535,330.253375,11.052838,64.472001,4.219226,1
7.080795,161.038971,25583.492009,6.796914,333.775777,467.479901,14.105554,52.331462,4.514175,1
6.433722,177.252511,20321.229404,6.378918,373.051772,375.028222,11.684648,61.629823,3.64149,1
6.770095,201.650854,25887.631722,9.367533,327.619453,519.380367,17.7203,90.064849,5.203461,1
7.92797,224.721059,27402.019999,6.875299,343.286313,315.913411,14.13712,32.438526,4.847262,1
7.338826,229.978694,12603.400371,5.975488,351.318826,370.860632,19.389337,79.971647,4.017061,1
7.078361,198.412447,16648.600567,6.931096,348.547981,472.276001,17.249616,59.630894,3.263465,1
6.751669,176.793152,32040.505669,7.931913,333.775777,467.148372,11.214908,47.532395,3.735173,1
7.744125,203.396227,21403.002048,7.623242,333.210903,424.32874,16.949811,48.416725,3.61226,1
7.560392,223.23225,14739.06854,6.731611,372.028909,481.341774,8.900409,62.134281,4.257805,1
7.830608,213.249258,18821.389612,6.475113,316.572415,405.278738,16.872395,55.90577,3.551568,1
6.746935,154.332162,25137.427677,8.495904,274.884089,330.083723,15.983632,69.943254,3.485536,1
6.542282,146.055383,35965.744581,8.578678,333.775777,474.007715,21.366387,54.127342,3.794055,1
8.549693,236.861505,17828.294524,4.752268,341.036337,423.11008,15.313243,80.931305,3.039019,1
7.499845,231.538868,22452.635567,7.821007,333.775777,380.999098,14.338248,66.396293,4.66387,1
5.763773,183.073629,22025.696606,8.952896,333.775777,376.581389,10.547398,63.299757,3.2532,1
7.276863,165.797952,30396.904619,7.835639,281.896882,475.646051,12.326184,83.399889,6.083772,1
7.493291,216.38188,9465.323905,4.947531,341.460632,501.345347,11.247507,52.951363,3.748747,1
6.116024,158.728901,22481.027318,8.467065,333.775777,458.992936,15.495284,66.396293,3.984309,1
5.226895,127.117555,7907.330441,6.761929,335.461842,475.332357,12.72501,79.420013,5.138056,1
7.080795,255.953599,15097.024064,8.482421,361.971419,471.477419,14.570932,40.287298,3.227941,1
6.42064,180.293,26034.528198,9.710619,308.957886,473.064824,17.724396,57.596636,3.13994,1
7.669013,205.595635,11579.441693,4.263279,356.136518,407.721613,10.829045,83.243808,4.589513,1
7.128062,191.400821,25227.545153,6.607844,319.250859,419.30498,12.865366,78.468491,4.510595,1
7.080795,108.916629,14476.335695,5.398162,281.198274,512.232306,15.013793,86.671459,3.895572,1
6.61535,179.240661,26392.863612,9.30916,333.775777,496.363562,12.786595,78.262369,4.453443,1
6.504876,159.182139,13403.086389,6.958284,296.076914,359.974437,15.63685,63.514312,3.748443,1
7.459124,195.028717,33173.499409,7.551374,333.775777,534.166997,17.334052,38.368068,3.544752,1
7.080795,221.673134,32269.504938,8.765238,303.961739,357.358567,12.819741,51.374239,4.804829,1
7.096047,221.508245,17240.021065,9.181473,322.616878,442.543599,16.5762,78.122091,4.785637,1
6.989442,197.685838,12150.721923,7.984166,341.100115,303.596799,14.330886,70.856866,3.853048,0
7.080795,184.741394,32328.714812,8.396587,292.938221,617.144794,8.348506,51.457074,5.493181,0
8.297726,222.436321,20320.108453,7.321859,297.138687,374.119522,15.779233,93.44633,4.166105,0
3.846454,211.757205,14686.28339,7.557873,326.912134,371.269374,21.76517,35.781529,3.143431,0
7.080795,174.917724,28990.787882,4.660411,417.340268,468.842985,10.018238,53.347048,3.669057,0
9.380007,166.269757,32471.456324,7.342535,333.775777,498.313062,12.779885,56.793317,4.566254,0
8.998375,169.22833,21790.010896,7.923357,333.775777,436.921508,18.222195,73.217875,4.516933,0
5.690387,241.215729,14083.829888,5.738962,293.465164,498.282978,24.755392,70.728902,2.988621,0
7.301563,177.662895,23441.267143,9.107017,326.29063,478.467047,14.003396,55.183347,2.774961,0
7.031684,201.002106,24510.507558,5.818274,401.268832,371.616397,12.846819,89.192433,4.422183,0
4.348675,197.276364,9848.035583,10.810938,333.775777,295.749525,19.958236,81.746418,4.36095,0
5.294195,234.271399,26811.203068,3.611358,369.608465,570.975027,12.775773,44.675683,3.522454,0
7.257931,187.765622,24354.335175,7.196254,333.775777,346.291785,10.892953,61.561166,4.266923,0
9.250492,184.442011,22749.178352,7.401663,375.008324,436.493762,15.402961,44.78897,3.996339,0
9.680475,199.531666,32916.331478,6.127804,333.775777,461.300095,16.109678,76.543839,2.79584,0
7.080795,184.993731,19764.627445,7.505092,333.775777,293.477998,12.93416,66.396293,3.017985,0
6.741246,196.833001,23565.73271,7.594584,315.574602,500.142898,11.663073,31.778484,3.500971,0
6.811702,261.389565,15149.489871,7.056107,333.775777,397.787119,11.993516,66.257649,3.275008,0
6.966943,222.890265,25441.056122,7.383783,333.775777,647.349939,17.391282,38.732647,4.356931,0
7.446089,179.146836,17763.310993,9.876515,328.459022,364.134173,12.982491,49.051241,2.948657,0
6.210648,192.216738,19330.035765,8.792886,333.775777,401.383264,18.225492,61.274216,3.212124,0
7.341547,187.672402,21273.457066,7.784003,333.775777,332.084293,16.842334,55.019151,4.025644,0
7.051396,187.418883,15423.387278,8.871524,341.562673,561.79076,14.280607,66.396293,3.172091,0
6.642614,226.527832,13730.259117,9.060767,257.459481,275.071712,12.77923,66.396293,3.807721,0
10.14629,242.151734,24649.674748,4.803373,347.069725,348.484039,17.614799,73.001545,4.481552,0
14,235.677458,24008.99204,5.635029,381.097711,460.745267,13.452538,72.859468,3.170994,0
8.469537,128.620079,15273.049287,10.725524,333.775777,553.34626,16.930868,69.736688,4.149553,0
6.043212,151.148322,24207.081673,8.414072,333.775777,410.909289,10.08505,107.585967,4.196726,0
5.841119,194.616894,17721.959557,5.646297,410.358673,622.963575,17.629541,93.070691,4.23756,0
8.114665,236.493275,26631.212874,6.266782,275.09087,496.989792,18.588534,58.313345,2.654594,0
5.585117,143.505413,22234.696738,9.252852,368.387465,437.124665,11.575215,52.424378,4.148343,0
5.903994,196.274726,19399.221972,7.641895,328.269272,324.045681,18.505372,77.157802,3.820021,0
10.284126,249.324199,23259.012449,3.331266,284.405913,468.866264,5.188466,67.622616,2.844633,0
9.578227,205.748742,33080.588825,5.659848,356.698301,333.069911,16.984961,68.906088,3.419239,0
7.094831,139.906866,18975.643495,7.571951,423.045974,528.266523,18.556177,68.648582,3.62846,0
7.080795,210.744708,12229.298484,6.950981,387.388826,422.027072,14.680844,77.32233,2.516769,0
9.68726,190.162869,18752.576403,7.073007,333.775777,461.070209,9.106873,64.228249,3.085835,0
6.527441,181.072995,22444.081777,10.474977,271.862792,351.063788,11.996365,66.396293,3.567181,0
7.080795,193.629486,18753.211764,8.685012,327.340638,478.102693,13.172902,52.673958,2.373438,0
7.744773,208.92034,27648.159653,5.622572,332.823799,397.057474,12.486192,73.184557,5.016321,0
8.289224,191.858805,22526.279753,7.979155,333.775777,292.860817,18.003679,72.575581,4.291001,0
7.249257,223.70354,24311.905794,7.392517,275.622487,306.782231,9.697257,77.199646,4.361486,0
7.744099,219.658722,30809.705704,6.790681,333.775777,405.032247,12.758777,70.371824,5.104188,0
7.080795,214.21606,19026.672842,7.634724,333.775777,421.140278,16.825739,74.629431,3.986882,0
6.890275,185.744147,12218.095945,8.022936,350.657872,394.440581,17.064897,86.631823,4.100697,0
6.047381,230.586285,20278.382985,9.360799,305.776583,333.530768,12.593848,55.301836,2.21673,0
11.568768,192.924448,39234.470184,8.860762,235.995461,463.435102,19.628177,81.496529,3.761288,0
10.164839,194.302801,28915.643224,7.301689,316.525209,279.165436,18.45231,63.062458,2.937686,0
8.722311,145.246618,20256.353066,10.651998,333.775777,612.327974,13.05334,94.826706,3.009289,0
3.717704,183.349431,14841.241996,9.53497,333.775777,293.917599,12.942291,112.061027,3.780259,0
4.894278,184.552715,10922.541994,7.461703,352.830222,338.681069,21.624718,91.007934,3.594991,0
6.071183,138.223983,14852.53068,8.093541,333.775777,389.302809,17.023531,100.44094,5.036334,0
9.032563,156.265649,24897.55703,7.639634,416.530533,342.74604,13.599564,62.502108,3.626136,0
9.913704,160.098247,32129.996307,6.109516,405.295559,541.22077,11.546324,46.08191,5.554667,0
7.080795,165.740229,19919.324589,7.278151,351.965054,420.120713,17.776053,46.00234,3.428096,0
4.229225,207.669229,21214.370515,6.844548,304.275125,488.455862,13.489424,65.30757,3.73314,0
9.135452,233.175332,32105.287115,6.749696,333.775777,370.929809,16.334776,68.697042,3.643687,0
3.906568,152.818846,17857.716894,7.36306,324.382843,342.408791,7.637198,75.201346,3.204796,0
7.384049,148.296177,14417.979533,9.084968,347.962098,316.579588,13.493983,58.861502,5.337987,0
7.080795,180.680598,8692.538152,8.671793,396.528754,534.339086,10.299787,87.652015,3.913602,0
8.524296,141.810243,12658.177161,11.264386,347.268092,387.085887,12.789958,69.577099,4.34306,0
5.706131,199.117827,25815.60909,6.383545,333.775777,483.824089,11.637607,79.473977,4.326394,0
3.715171,199.083393,15900.797145,8.561198,291.104167,371.847136,11.973577,66.396293,2.353338,0
6.519848,183.225998,14284.647917,8.389078,373.091575,495.417954,11.638475,58.661649,3.272286,0
7.910641,190.4276,16461.502324,5.454476,394.305876,294.178639,17.658652,82.417022,3.886603,0
6.587465,211.169277,28990.297847,8.883665,267.202392,504.908752,14.054691,68.976475,4.096841,0
4.300029,218.319886,17639.85794,7.527317,331.834632,424.2094,15.005737,70.050831,4.586448,0
8.575939,215.136721,15778.729396,7.532773,316.95949,359.830073,14.944675,79.463992,4.002129,0
8.884935,145.277706,17621.390115,8.267974,341.477474,286.890777,15.194724,42.289054,4.714163,0
10.50476,143.767498,31320.245588,7.728505,402.953533,491.216033,12.003832,75.641708,4.681366,0
7.080795,219.074646,31044.73818,6.772327,263.900538,411.471151,16.208928,70.852672,1.984615,0
6.946718,214.170043,32946.567518,5.484258,333.43957,318.883636,12.809956,15.684877,4.934986,0
8.107092,213.029273,24531.86944,6.237222,322.097056,517.490049,14.352031,59.860286,2.769164,0
4.9089,161.243192,13516.911495,8.206212,343.305288,535.224517,14.356101,71.444915,4.196429,0
5.098967,197.142637,21682.754771,7.755905,292.251426,424.666112,10.92759,51.22096,4.333667,0
6.093092,208.908022,21456.604422,9.600683,263.45349,459.015554,19.296765,31.007235,4.523558,0
10.033933,213.647419,25433.232095,5.202938,319.010074,362.262157,13.994461,68.02077,2.901535,0
8.978998,213.091772,19030.716876,5.291516,316.940333,473.150388,15.891079,66.087038,4.656317,0
5.514748,228.735924,35343.62858,4.346608,333.775777,526.112381,14.930982,46.780508,2.798158,0
7.080795,200.839894,20743.348404,6.905988,264.643533,450.36172,10.209153,70.495602,3.808913,0
6.731278,229.128889,15058.138753,5.119307,315.880099,443.958439,13.782579,76.273839,4.190484,0
7.191962,228.409943,15395.469082,7.398603,334.777619,294.915584,13.932293,50.748365,4.102719,0
7.080795,190.382604,30524.093791,6.375449,387.668609,382.056758,19.195322,73.657806,4.938389,0
7.127711,173.690102,19309.570454,6.533392,372.537225,295.385825,7.273399,88.790927,3.396185,0
5.632041,203.730481,19345.922475,8.047798,265.347111,708.226364,15.752252,69.195926,3.511985,0
7.080795,184.020029,13361.226016,9.258656,335.089993,467.444154,19.581926,80.084233,4.411058,0
7.955026,244.395898,32405.413861,3.318045,307.643561,433.911804,16.254483,67.680774,3.955917,0
7.77505,195.178742,22329.740079,6.10513,416.949194,371.61586,10.964183,66.396293,4.699483,0
5.16834,206.269755,17914.340231,11.24,333.775777,357.696971,4.902888,72.0847,3.841163,0
7.667521,163.345819,25035.271042,8.258578,329.597091,431.867757,16.0785,89.09365,4.618165,0
7.272362,229.087141,16404.759485,7.589754,272.276912,518.60948,17.878956,67.104417,3.996581,0
3.691933,202.512068,9439.783993,10.343626,313.138886,543.685833,15.436185,65.205101,3.846607,0
7.080795,221.126963,27158.677734,7.875937,274.658788,472.09609,15.759417,35.710402,4.688955,0
7.692524,220.819152,26686.847941,8.286211,299.958846,564.526974,13.861775,77.01594,4.522432,0
8.157518,236.34444,27931.208402,6.203676,325.323955,511.587664,13.381575,80.686958,4.469431,0
7.187766,184.156604,31125.740434,6.37779,352.916016,472.274122,14.807893,61.963888,3.784121,0
5.689554,202.364723,17493.650424,5.520356,385.197355,479.237852,21.692974,66.396293,3.73217,0
8.758825,197.21521,19572.14708,7.493433,376.838279,518.385546,19.185921,35.78601,3.527565,0
9.814247,177.712217,30575.946902,6.393927,333.775777,536.720632,12.339004,46.259048,4.317531,0
9.969273,237.022863,26944.681919,5.588775,334.326196,379.137977,13.00818,86.185058,3.643379,0
7.080795,179.154956,18282.069276,7.874879,326.186856,397.221151,9.438369,57.851079,2.757857,0
9.149127,162.683275,21463.059188,9.820675,333.775777,501.566902,15.667044,83.691551,4.805641,0
7.080795,146.250325,25623.340549,7.307749,333.775777,464.184606,8.354867,69.001575,3.582882,0
5.840812,157.882575,16087.26971,9.458,277.540449,550.137405,11.870382,52.247067,5.049464,0
7.080795,209.953278,18668.363826,4.453252,347.581603,479.561362,16.092975,68.799179,3.772078,0
4.981672,220.950558,20988.087806,7.985668,232.548814,373.624878,12.235175,45.95003,4.475148,0
5.423318,185.903179,18020.842428,6.401046,447.417962,332.050056,7.71574,67.333687,5.224655,0
4.838571,241.135975,18328.40262,7.403239,237.517456,355.275454,12.717352,75.398283,4.580372,0
7.904053,217.771631,23575.99143,7.493024,279.146683,548.155383,10.329558,65.180543,3.13728,0
6.744064,158.534831,16304.528919,7.133913,333.775777,514.748524,9.333898,38.54231,3.534126,0
8.663975,206.923164,29551.334148,6.030276,339.032266,329.710839,9.139903,63.765761,3.689241,0
4.161112,181.736389,25815.389207,8.534629,297.239219,399.292171,9.343334,46.638081,4.168242,0
8.515977,212.304629,28553.559458,7.225366,342.604083,341.740345,9.003647,60.725201,2.165682,0
9.999807,215.108978,33462.034221,6.194122,365.895338,373.936756,13.792034,77.872102,2.659978,0
7.038092,204.923285,24607.088098,8.080156,280.745623,365.845248,10.807557,59.912442,4.237698,0
2.803563,186.123924,11920.907422,8.642034,332.744519,447.594219,18.482185,87.697443,3.489939,0
5.9726,186.46747,23124.577976,7.012554,333.775777,446.219354,16.455404,64.688815,5.164945,0
8.180755,178.079638,25623.867503,7.574082,391.918229,353.507014,19.749408,74.295305,3.845423,0
7.010243,162.12324,26395.248778,6.622597,333.775777,574.581434,12.277989,51.628691,3.279006,0
8.17989,258.901939,17291.618256,5.18441,333.775777,434.504238,12.813028,51.095711,4.295738,0
7.080795,162.512684,24642.812333,7.267573,330.90537,414.650725,11.583353,73.946186,3.21574,0
6.865125,216.744458,13529.038758,5.618492,402.313427,553.616733,15.692771,86.378082,3.955154,0
7.950817,147.117918,20827.917578,9.226125,333.775777,474.854039,10.714241,60.255519,4.543685,0
7.080795,204.258263,26321.689195,5.937496,333.775777,487.273628,20.407809,70.340601,3.305588,0
9.581189,223.296216,28292.780318,5.665431,333.775777,398.479317,11.350768,44.57412,3.929178,0
7.274757,195.11803,21496.745136,6.57109,360.697815,418.373582,11.382543,81.235608,4.271581,0
7.080795,260.845039,11803.7355,5.26067,336.040452,424.058418,12.318942,70.203325,2.816075,0
8.026773,169.333843,19168.526773,8.081496,405.527337,350.57737,15.177534,68.003932,3.735983,0
7.879543,170.190912,37000.955674,6.217223,346.063677,517.576762,15.87177,68.911185,4.066229,0
6.448971,237.461099,18736.190902,5.59987,333.775777,235.042283,11.545477,56.71551,3.759326,0
5.189414,171.238926,12289.900922,10.7865,301.230848,501.559725,12.284334,54.473935,4.876273,0
6.538084,197.428199,15979.06027,7.424945,273.719282,452.187233,18.584959,77.730814,5.14375,0
5.915807,195.744074,12431.80311,6.661616,380.725336,367.854025,21.300647,90.394895,4.513201,0
8.136498,184.231854,30031.839181,6.215307,373.652791,400.611899,15.288782,37.787097,4.204186,0
7.080795,187.873284,29532.615003,7.981037,274.493395,469.132117,16.169212,78.925527,4.586748,0
6.493764,205.150564,19821.338373,6.344963,298.379976,482.595709,12.164736,89.477718,4.910911,0
7.080795,205.338546,25142.733738,5.639501,296.091273,528.280024,12.911509,69.526718,4.89483,0
6.977406,205.563499,16100.967947,5.527299,371.361851,532.342083,10.346574,72.573959,5.327585,0
5.489248,134.560276,15979.334793,9.504361,366.214428,418.642063,12.897635,57.780869,3.987012,0
2.558103,147.490575,21316.506728,9.142234,312.054239,406.372019,11.519669,83.277583,2.817258,0
7.312109,199.812999,14540.735082,8.827414,276.118282,486.983734,17.271656,70.135608,5.123872,0
8.554097,191.708414,32112.569874,8.115355,293.655798,518.944362,8.56758,58.062463,3.56361,0
6.704432,148.842129,13329.032253,7.118465,333.775777,403.420996,20.794371,70.346102,3.395332,0
7.080795,194.719186,18344.069444,7.611837,333.775777,320.356014,12.333237,75.114888,4.515322,0
8.028304,204.783735,20408.485598,4.531581,406.328921,515.575097,21.558863,70.547218,3.915991,0
7.080795,168.042465,18564.372055,8.562156,345.205222,419.131577,18.45989,59.70021,2.962433,0
8.616824,228.762945,19126.298537,7.017578,327.894821,383.527023,14.759257,41.275927,4.584566,0
9.467129,169.214408,33365.315416,8.46049,315.960398,449.723952,10.396796,74.326898,3.164188,0
6.793699,227.225751,14470.053549,8.471509,274.444719,360.755674,19.402149,40.290591,4.822958,0
7.080795,229.725348,22444.559412,5.702175,320.990051,389.030889,15.501543,34.246212,3.851154,0
7.080795,188.395023,21875.216397,7.141372,408.855902,616.12134,8.974388,59.708017,4.123239,0
5.486059,186.695632,16639.215179,9.80778,333.775777,355.942431,12.254262,66.396293,4.557707,0
5.050748,191.722206,18252.07599,8.118115,284.215072,373.741228,18.045432,91.851938,3.930291,0
6.246118,199.098973,27001.335319,7.808013,296.923626,478.745945,17.128023,84.798956,4.755158,0
8.142331,221.752348,29808.236904,8.820156,205.935091,556.657644,10.7378,59.512998,4.704866,0
6.852899,158.079791,11914.463778,7.634967,386.167384,473.643343,16.939374,62.695471,4.594761,0
8.801934,225.895468,23659.21152,2.458609,408.417866,446.992465,14.340818,42.800911,3.769832,0
7.080795,200.308653,25355.998921,7.105245,304.64809,394.246061,16.067376,77.810988,3.279888,0
8.383762,156.951865,21923.874085,7.656831,379.541641,364.794883,11.773964,62.85578,3.585737,0
6.47614,215.721769,21165.590649,7.642952,348.474943,315.078135,13.54318,46.169007,4.04158,0
9.894562,128.585733,26436.033327,8.778717,349.748446,480.667616,9.105813,65.32733,4.617533,0
4.80804,186.16057,19118.050299,7.054444,359.406236,577.491371,8.304288,73.153089,3.59776,0
10.577931,278.03636,28652.143304,2.785718,379.277495,334.211669,15.011893,65.199878,3.051608,0
6.304972,249.082601,21046.448517,5.456273,333.775777,334.178652,15.089083,52.791689,4.221306,0
7.822492,208.63672,22308.821729,5.850328,408.123255,502.789396,16.135732,60.393982,3.835332,0
7.989376,191.936191,16746.800392,8.562428,312.739993,431.505677,14.371148,77.92896,3.648744,0
9.671797,130.608363,30220.612486,9.309142,370.294867,411.881375,18.024005,76.159718,3.895104,0
5.941266,179.954862,26562.447179,6.803288,333.775777,431.969182,14.632401,75.434029,2.227371,0
5.574756,189.700665,11512.465842,8.720972,329.939631,331.330352,18.016991,66.188642,4.371806,0
7.610509,208.817812,34538.544038,5.60062,301.787241,470.740312,15.668908,35.365054,4.692218,0
7.102447,243.412941,23493.120864,4.792738,283.344321,341.438781,16.072774,45.633295,3.065508,0
5.15274,185.342237,25669.71992,7.819479,318.450974,449.918993,18.301574,49.342036,3.842625,0
7.301464,205.72188,23778.758719,8.179967,333.339282,529.624618,12.352311,41.032062,3.942709,0
6.104926,241.175718,13539.811664,6.015548,335.396475,363.633403,13.456484,60.923713,4.131933,0
6.001382,186.884422,22554.830087,8.391883,331.214867,444.891044,4.466772,65.954766,4.03672,0
7.080795,153.035108,28504.997508,8.425498,333.775777,346.311159,15.138653,48.38496,3.830884,0
7.885679,207.821304,12359.631194,7.377663,340.978985,499.36169,14.045191,97.62716,5.43035,0
7.080795,159.832881,23917.190146,6.781576,369.223852,472.927194,13.891834,85.758645,2.857687,0
7.679091,204.859994,21530.316231,8.1854,333.775777,445.370944,16.310146,78.019888,3.186823,0
7.080795,163.95724,19516.898042,7.178777,393.840917,587.841581,14.842673,69.006856,4.169924,0
10.391942,262.74177,39116.682706,3.205786,285.72842,473.313969,13.300688,65.318816,5.771715,0
6.714862,236.542051,33197.150527,4.958517,331.48453,402.946557,14.841182,66.396293,4.593764,0
7.349653,235.210876,20443.135055,7.177789,333.775777,305.417306,12.831113,91.092677,3.861684,0
7.080795,196.082967,22746.061659,7.70274,325.478423,397.054983,21.091602,51.939019,3.71311,0
7.345138,202.174463,17032.773734,6.212629,361.440487,600.295028,17.29974,89.077865,4.297995,0
10.14709,177.821311,20642.58872,5.759744,333.775777,487.878856,16.487323,48.58901,2.799441,0
6.380717,266.01541,21250.935634,4.854335,357.241027,358.185473,27.006707,59.937785,4.53202,0
7.940647,181.771307,15858.778176,6.849964,333.775777,584.827155,10.590137,81.957189,5.431837,0
7.080795,197.713639,31251.643733,6.252423,333.775777,322.217629,14.271722,74.644268,3.906526,0
7.786735,192.179739,28086.873498,7.157952,329.708632,327.380488,10.681349,52.415462,1.961475,0
6.32304,227.553972,24463.137418,6.261934,333.775777,399.947453,17.912652,71.151222,4.749424,0
7.080795,170.291426,14550.417005,7.847404,395.495954,486.367693,13.797578,51.41591,3.794033,0
6.645657,170.269715,23432.10973,7.066565,333.775777,513.364946,20.264678,78.900888,4.170658,0
6.01454,205.48294,23268.243081,9.035769,283.340368,371.403475,16.863668,73.017793,2.686069,0
10.086771,189.732379,17572.547468,6.894731,333.775777,416.641081,9.477756,92.892178,4.334122,0
5.166226,135.712166,12060.009527,8.637098,333.775777,362.217258,11.185554,76.067064,4.608319,0
5.573201,229.174987,15613.160533,4.157902,383.481116,409.066577,10.751904,63.758516,3.599625,0
9.494559,254.534457,28492.170509,6.113608,333.775777,620.981006,18.417954,65.448057,3.631107,0
9.036504,199.32189,21696.003242,5.970187,350.183841,288.508807,13.400389,73.058067,5.661984,0
4.400509,119.334036,19100.087124,11.753904,333.775777,328.399763,14.912109,49.356509,4.010809,0
6.975392,205.940246,22685.68444,5.927759,304.049074,441.765158,13.518052,77.9794,4.93146,0
6.68775,160.260964,17786.7633,7.660376,333.775777,247.918031,17.439493,86.856696,5.559985,0
6.867522,182.672169,20247.201029,6.867073,330.805652,420.333457,17.952822,60.0688,4.837268,0
6.155249,159.519502,19781.6106,10.08161,310.140661,505.108379,16.768604,41.995455,3.803909,0
8.303264,232.414673,16548.35673,6.343523,301.087247,395.339102,13.789985,78.620715,3.892667,0
8.641634,206.341973,39557.255533,5.999847,290.575996,345.489382,14.708603,66.396293,3.416625,0
7.080795,219.674262,22210.613083,5.875041,333.775777,398.517703,11.502316,112.41221,2.994259,0
7.348611,214.71589,32742.187333,6.351029,320.065106,438.044331,15.792574,55.366456,3.544537,0
7.573906,206.204202,15926.426008,5.524666,333.775777,457.637786,11.55062,66.396293,4.410729,0
7.855906,209.751802,19850.182892,8.038872,300.292954,368.437561,18.525207,57.238874,4.15189,0
7.080795,181.389716,18908.628258,7.21535,325.900819,356.166602,14.782837,93.440668,4.013477,0
3.798391,189.618528,18529.798031,6.888257,396.10723,365.272965,15.266331,86.680711,4.833508,0
7.080795,234.511849,19038.901904,6.795916,322.896261,437.478779,18.108365,66.133229,3.514097,0
11.235426,178.596496,33773.107061,9.063042,327.65096,425.868039,17.986255,58.986652,5.147055,0
6.396341,126.490745,20115.733588,7.763739,427.377802,435.278434,11.881668,53.659152,4.445907,0
7.080795,222.98063,32237.245433,5.924659,336.652703,526.776081,9.842433,77.241984,4.006632,0
5.228506,191.663797,24855.907781,7.016078,337.270897,343.349235,15.922648,77.3153,3.188805,0
6.51224,198.564677,21626.563119,5.897104,389.336993,296.260784,9.177842,66.396293,5.425795,0
7.834319,171.288785,25918.567953,8.589394,307.228666,448.564049,16.407803,60.182115,3.532936,0
7.388292,178.34406,12928.644433,7.830295,333.775777,376.488888,18.113485,40.401978,3.84683,0
6.020654,197.46909,10529.310299,5.305352,416.495213,412.011733,9.909315,59.167002,5.217131,0
8.388322,256.234007,16795.820484,4.143519,333.775777,333.946197,10.821321,55.190219,3.854772,0
8.384296,223.328185,27463.654795,6.476753,352.952803,318.042648,10.645164,64.209337,3.460998,0
7.393978,209.619214,17939.704696,7.233736,333.775777,349.209623,13.579349,68.152467,3.782728,0
7.080795,235.789794,21983.559073,6.061284,331.272919,441.216193,12.74357,66.899833,4.49446,0
8.384623,166.87838,29956.363018,9.778123,307.362943,546.482329,17.370262,37.835643,3.68278,0
7.094802,222.501306,30045.367741,6.66401,333.775777,531.959462,16.162941,46.100959,4.08466,0
6.565319,141.59184,12875.127784,9.116994,340.91392,339.976992,17.10716,86.06751,2.233894,0
6.38172,199.635028,20453.816501,5.848735,333.775777,344.599509,16.651415,68.313083,4.657695,0
7.539742,201.959317,26716.359708,5.63735,333.775777,516.35456,14.985649,83.536821,4.210678,0
10.628821,193.433163,14054.125487,10.328489,327.064185,479.402509,14.075787,66.367503,5.140449,0
9.228484,200.71033,26744.231526,6.83336,339.820719,363.950991,14.144772,86.9502,4.829754,0
10.524602,256.172323,31965.364041,5.007003,288.565983,505.361417,12.536626,75.343364,4.340987,0
7.080795,229.740962,22709.386058,6.361687,316.234433,294.165623,16.097627,54.591249,4.795407,0
6.021266,236.975496,19894.147593,7.587909,286.938517,315.266811,12.1316,74.126663,4.028042,0
7.080795,236.204889,34822.816343,4.966397,362.070174,537.996625,19.085484,87.801045,3.778302,0
5.973951,182.143328,26804.109491,5.737988,399.25369,481.901929,9.209972,48.937329,4.208923,0
6.21758,189.342225,15155.548989,6.819438,306.8926,297.763685,11.964914,81.386753,3.490002,0
7.080795,175.833944,36819.986845,7.650455,322.021909,344.716053,16.918916,66.396293,3.524414,0
9.130607,226.403741,19968.677835,5.723792,386.699776,440.543099,11.751718,66.396293,5.288487,0
7.080795,283.409568,21160.089739,4.270718,253.433506,525.992287,6.874315,54.648035,3.978747,0
6.095512,200.045818,16404.94142,6.392095,366.017336,444.454211,16.029989,72.301702,4.302016,0
6.195255,170.002291,16666.130805,9.483424,333.775777,457.068162,16.345685,79.369243,3.138971,0
5.814564,184.541709,29382.335258,6.051233,348.352374,405.621375,18.748201,82.186737,4.131912,0
6.75666,212.641858,22112.746346,8.33221,275.240444,387.562192,14.174063,76.31744,4.184874,0
7.080795,172.111514,26595.373543,8.232252,333.775777,348.843576,7.877739,93.302816,3.550311,0
6.369974,128.616868,13689.592073,9.06683,333.775777,319.785076,8.001415,36.007524,3.427066,0
6.601407,205.621022,19635.588255,7.173229,344.034461,430.559852,12.172053,57.356347,3.973576,0
5.651934,139.049917,16575.82126,7.857856,390.537656,418.543238,13.269004,66.076223,3.872027,0
7.606067,248.041453,14609.976883,6.356555,322.356572,275.317146,11.706095,94.775244,4.581477,0
2.974429,147.148675,17326.202253,2.498597,393.168745,375.41147,12.798187,76.413069,2.779902,1
7.080795,181.562406,19289.361453,7.325055,333.775777,274.69654,14.093402,56.801321,2.619421,1
7.080795,232.098339,16378.151576,0.352,238.446564,454.555208,7.764144,55.876641,4.431829,1
8.111101,198.768195,35200.798834,9.68539,333.775777,348.971395,19.071935,72.871564,3.663775,1
7.116133,204.040782,25131.665279,5.402655,292.324403,424.003499,12.83671,55.404587,3.915382,1
5.280292,164.057389,13679.056905,5.971385,333.775777,635.888484,11.805625,35.433864,3.835306,1
7.080795,167.10443,30362.683948,9.990332,362.261636,432.03071,9.971476,94.984101,3.346057,1
9.808258,220.049574,34132.067979,9.752751,233.870327,367.044379,13.498665,62.95426,4.481261,1
7.080795,172.214683,26653.764966,7.271685,335.894456,510.029725,13.809874,85.381682,4.492387,1
8.018832,197.785588,23104.520387,9.67486,322.934548,395.738631,13.337748,68.850204,3.188477,1
6.603641,206.919743,14598.025787,6.452141,316.253503,582.110606,12.520933,68.872497,3.403798,1
6.450806,198.493156,19002.314664,7.306447,335.482194,257.007718,13.724087,52.860388,3.275581,1
6.266378,163.385405,28141.216497,8.508751,376.870555,295.675137,9.938445,50.159734,2.936611,1
7.080795,144.99579,16219.47532,5.563067,379.962973,374.543069,11.118073,72.290773,4.904367,1
5.161879,179.636409,18666.563638,5.196133,400.896023,485.311954,14.059708,75.82205,4.320101,1
6.984406,181.707343,18194.54531,8.263804,371.146458,201.619737,11.267398,68.192658,3.40621,1
6.791993,210.407967,30471.929098,6.614438,326.585846,493.179417,19.985555,61.120143,2.914057,1
8.309228,198.3369,24344.966693,8.34351,278.866835,456.530019,15.514119,64.444751,3.756397,1
5.057736,137.689344,11229.137777,6.41141,481.030642,580.095225,15.390304,43.882514,3.163936,1
6.908272,211.105551,19224.98628,6.37997,307.102206,323.885454,21.208477,71.920988,5.405567,1
7.24341,188.046296,20877.534841,8.454107,333.775777,377.649344,16.357375,71.627136,4.466936,1
6.16448,189.058756,27312.168385,6.822157,319.951593,522.801398,13.50258,53.696202,4.834023,1
9.160998,241.383097,28170.885101,6.819603,262.572042,568.420568,8.120979,48.259572,3.542528,1
5.277876,166.733007,18404.050689,4.777124,333.775777,347.219457,15.526043,63.008668,3.632607,1
3.975753,135.891978,17430.841944,6.305788,373.486425,344.398912,15.62431,68.370968,3.666824,1
5.685216,154.570002,17628.043059,6.664444,390.094731,324.427772,17.352586,67.4073,4.066157,1
6.933654,217.770316,19026.017329,3.117441,317.066842,448.23464,12.943634,76.824752,2.010729,1
7.464485,227.000019,26559.360897,5.657812,300.690651,332.068825,16.052838,28.682952,3.880576,1
6.071839,217.826531,17162.753927,3.521125,319.037346,612.094926,16.542239,64.826308,2.69161,1
7.136103,186.582706,19502.538967,8.095427,305.430011,355.937238,15.64513,73.885612,2.574192,1
7.080795,182.113946,21453.334662,6.667287,333.775777,392.433377,15.464582,60.046065,5.036017,1
6.328553,192.076515,33315.947082,7.050047,333.775777,489.745346,9.561964,57.773285,3.265854,1
6.150596,169.402776,23890.893358,7.33596,375.80113,373.548215,15.704323,48.299493,4.84752,1
7.080795,205.666016,27044.95981,4.033934,298.213816,515.754936,9.057549,48.02969,4.067414,1
5.508156,192.226546,12137.099597,5.230477,433.021506,405.48551,8.512225,54.91513,4.571406,1
4.761105,150.074533,19197.105515,7.936652,374.477319,400.451268,11.13215,69.26035,4.581395,1
10.490744,221.02926,32092.058384,12.6269,333.319882,403.824003,10.663801,87.993206,2.887023,1
6.676137,192.685849,27468.98017,5.809436,281.406871,299.886997,12.237608,46.069213,4.336648,1
7.973308,237.497153,23517.681011,5.354516,283.583834,478.893616,15.259598,53.671478,2.826112,1
7.352146,208.324476,13714.832635,8.21924,352.849847,336.912934,20.846445,69.437225,5.864498,1
6.990801,222.943748,19713.411521,5.29245,310.887617,270.055394,18.362218,66.396293,4.33264,1
5.468361,180.382364,12305.905415,5.446563,410.459272,388.745502,12.553094,60.627748,4.933468,1
7.835907,206.665788,17643.407147,8.137484,333.775777,474.989773,16.167186,68.082265,3.183864,1
2.538116,100.80652,19872.854854,5.014023,418,420.830866,13.980891,85.943192,2.840097,1
8.423084,153.032892,15924.799687,11.101628,329.132239,431.167468,12.321633,52.63131,3.958609,1
7.617014,214.404363,29818.095042,6.508853,298.35185,494.945537,13.310224,70.048007,3.800553,1
7.617033,242.989402,17681.272357,2.85579,298.413238,549.987318,10.065225,76.51317,4.299543,1
5.429335,183.439383,15265.407564,5.714731,394.001195,446.879149,17.581557,50.266951,3.081736,1
7.080795,215.491606,18489.652505,3.758833,294.603038,370.274621,6.530429,68.100024,4.582157,1
5.495976,150.534519,18333.632664,7.471728,416.888527,300.358972,12.300193,55.706781,4.901038,1
5.092757,239.740916,28390.891358,1.390871,258.444294,452.306042,13.837352,71.512053,4.636729,1
6.25281,187.569479,27690.474784,6.489931,330.94921,303.496373,14.261369,57.952826,2.921797,1
6.747415,250.419555,24539.713165,2.397985,358.229866,339.34474,15.35729,59.99077,3.377451,1
6.640863,215.060867,16488.047656,6.642337,304.757434,507.128833,11.979157,18.015272,4.708269,1
7.080795,138.525712,17905.480019,7.929303,399.503611,485.423179,17.667366,36.058262,5.437429,1
7.30099,182.447697,29136.338677,8.253015,333.775777,307.433303,8.730149,49.895342,4.596347,1
5.498515,180.825114,21542.830032,6.707095,352.250711,419.512958,13.183432,68.90437,3.074815,1
5.652501,187.83118,25868.598733,3.523714,338.028852,456.259791,15.496329,72.545256,4.856444,1
6.164927,206.040584,22805.611505,4.398831,333.775777,409.357679,16.895725,61.725876,4.169661,1
7.851926,235.338312,14763.580113,7.741975,338.603322,505.665639,11.86337,49.598381,5.204044,1
7.221689,203.069029,13703.220377,7.823612,352.124567,412.32049,16.125741,80.058877,3.160818,1
6.578084,214.146334,24882.625163,5.071157,333.775777,400.74316,14.018056,58.841906,4.890416,1
7.85949,211.311029,31725.487766,7.519691,313.344198,433.444665,15.909471,66.396293,4.498069,1
6.073685,140.926196,11795.31358,9.128422,437.647163,413.07582,14.93485,48.018966,5.24907,1
7.080795,208.256283,13696.009917,4.484021,333.775777,449.178061,21.305197,76.039788,3.850135,1
6.407963,199.131726,28460.203397,4.613721,330.914076,448.858006,11.656913,70.161839,2.954093,1
8.646643,201.439065,32571.054518,9.959355,333.775777,338.497815,13.261538,66.229394,3.333243,1
7.184698,189.758396,13317.468112,7.83232,378.675456,541.306097,12.492179,41.696183,3.904063,1
6.932085,205.338482,19530.473819,6.521955,333.775777,475.210216,15.673883,53.955866,4.433286,1
6.174751,138.513588,21504.138821,10.860295,338.703016,447.805465,14.241965,31.705933,2.566049,1
9.540252,224.054582,31683.864593,11.99429,315.359085,493.836379,19.093599,81.393722,3.329504,1
6.888843,188.920671,27368.014339,8.003187,355.478563,465.346979,12.377083,75.112494,4.512332,1
8.174186,244.249046,31114.820836,4.726912,285.332026,418.6196,14.873626,56.464157,4.709403,1
8.756927,218.637759,21752.029713,6.454876,276.2781,356.075769,15.713149,67.049639,2.945672,1
4.740057,176.655631,24069.335915,4.013444,367.805016,288.221298,13.20422,77.880375,5.467936,1
8.764496,210.851346,15978.036559,8.043354,328.759844,324.047375,12.128377,59.789163,5.790838,1
7.899452,210.734124,15896.365937,6.907203,319.886957,448.666423,18.169921,124,2.853767,1
7.402653,182.999381,19259.193937,7.63237,295.931373,339.737304,10.494609,83.118742,6.22658,1
5.800034,181.453515,13028.688458,6.106765,374.357784,405.51722,15.773825,35.338133,4.074408,1
7.089184,179.045838,21065.663658,7.471614,377.778024,571.575505,12.623104,85.241179,3.266029,1
7.852207,169.028379,22912.189579,9.616223,333.775777,468.445396,12.601122,80.62516,3.532438,1
4.945695,170.440921,23000.723137,4.433725,340.64567,346.642267,13.276638,84.551081,3.782517,1
9.776932,213.91508,23971.989519,9.603302,293.825008,507.016573,16.066561,82.860936,2.569468,1
5.153489,107.341982,19115.721861,9.296114,333.061939,457.891532,17.445656,77.598804,3.749921,1
6.884981,138.440111,14893.206396,9.686435,319.134991,286.921558,14.184036,54.559077,4.584319,1
7.60875,192.856644,25410.811872,5.955008,283.802967,432.209545,12.796347,81.103792,4.627464,1
7.080795,210.097608,23616.804623,4.465677,365.961258,421.879854,14.536852,76.157103,2.290411,1
4.901907,141.930781,13614.750925,8.30696,368.618688,439.055356,9.921623,82.660165,4.103534,1
5.711213,145.825869,21157.179729,7.954721,385.206097,441.086563,16.682025,70.470889,3.953335,1
7.47669,162.008703,22171.318898,9.611599,333.775777,401.234815,14.99374,82.861764,4.195539,1
7.033495,191.880217,29322.740697,9.027057,333.775777,496.198299,17.191646,42.864682,3.678957,1
7.080795,152.537418,19731.749181,10.886742,373.988714,463.747681,15.534904,61.15129,5.294159,1
7.080795,189.001086,20784.56786,10.088771,312.954695,419.534133,14.801684,62.535071,5.149542,1
8.655299,222.268793,13676.753524,7.271299,348.618844,460.870647,18.01676,72.428205,4.588758,1
7.080795,177.20201,17766.252888,8.19909,354.27737,520.201129,15.099588,62.971995,3.168031,1
8.304335,155.569942,18253.181095,11.448469,329.100636,380.32344,13.755926,35.05703,4.181254,1
7.717077,211.681327,21400.016496,6.987854,268.944957,495.914919,11.440747,85.051546,4.967976,1
7.555823,190.461917,29411.628645,7.868878,349.948941,524.465999,19.408144,79.555593,4.099169,1
4.88173,136.990466,19105.014903,7.264678,419.716412,358.046318,13.399392,75.934052,3.050198,1
8.311271,206.107758,20562.513391,9.820473,333.775777,479.03232,21.741144,80.012644,4.462046,1
3.800431,111.246412,14904.940387,7.729645,418.559347,382.22437,15.872221,66.396293,4.473976,1
4.083595,201.938643,20555.965489,1.920271,341.597153,435.511529,12.226676,69.289779,2.974871,1
7.080795,201.572046,15618.135242,6.705211,367.193457,359.952007,10.940975,24.914971,4.575874,1
4.86507,174.060457,15222.246444,5.839219,412.03712,333.504327,15.266615,68.926353,3.974972,1
9.624727,217.37278,25175.754158,9.883946,329.174454,394.054835,20.277571,85.840258,2.615257,1
5.188777,178.993269,22648.237553,6.318063,326.467898,404.561129,18.840383,89.914438,3.769504,1
7.842979,200.829674,16827.192867,9.888403,333.775777,566.330705,13.791245,46.662407,5.109312,1
5.91693,185.925021,27977.673208,6.77461,329.619336,428.832746,20.638076,70.795496,3.15756,1
5.729689,173.975027,14304.763083,5.340088,369.15397,471.679901,16.424227,58.157688,5.100552,1
5.678221,143.186508,18377.008261,7.145335,418.247228,359.774711,18.714478,77.447639,5.429782,1
7.386582,191.585565,26351.903774,8.426161,333.775777,505.187929,18.925674,72.649614,3.791373,1
7.519227,210.38479,16897.307041,6.568658,344.703673,315.520435,19.856184,66.396293,3.275725,1
7.446226,241.573862,13312.446107,4.532979,333.775777,529.459075,17.237871,62.522183,5.086699,1
7.753936,220.098279,17169.584382,7.984039,344.121899,385.045003,16.848512,47.003322,4.833027,1
9.15966,195.423316,16679.335164,10.110462,301.746411,404.659103,5.196717,55.466759,5.452362,1
7.496991,246.863581,22631.657727,3.44088,297.132449,357.498459,16.141286,79.70553,3.837926,1
7.5423,230.15054,18877.493895,4.344707,278.250436,447.259353,17.555578,53.341682,4.317554,1
7.159053,161.47871,25591.840984,10.189528,367.596397,330.550453,15.447842,51.188317,4.291669,1
7.080795,116.905479,27151.312902,10.185348,333.775777,372.002319,13.507232,63.273696,3.516238,1
5.844674,147.179804,13615.109758,8.881112,394.65838,533.04021,14.217373,91.614031,4.338056,1
7.080795,201.827848,35418.73504,8.255971,253.580234,447.281396,15.60446,45.492111,3.384649,1
5.258415,210.929495,29228.334683,3.833902,341.640695,363.570795,18.065015,36.152103,3.730793,1
7.420641,212.735585,18463.722127,6.727919,355.971495,523.602714,12.086675,44.980102,5.423767,1
7.074251,208.920369,16739.266635,7.861469,333.775777,518.977153,8.881999,78.419019,4.878944,1
8.189214,156.328465,18432.476518,12.246394,370.121385,288.351471,11.8719,79.765841,3.709509,1
7.744131,185.567618,30586.592663,8.04076,333.775777,314.425834,17.132369,59.871609,5.207683,1
8.289858,222.483931,23884.131479,5.533208,354.95933,514.733083,11.205533,57.31368,4.289237,1
8.02522,213.519722,15457.498662,7.66954,318.114395,376.314446,9.422745,55.459551,4.134943,1
8.848927,262.598329,24417.861325,5.399013,241.126298,493.855489,13.262439,47.112991,5.992325,1
6.438422,202.537835,26448.245087,5.775933,322.451774,567.201675,12.641968,55.701067,3.38036,1
7.080795,179.796205,17029.534893,7.01899,371.675555,404.672108,11.593431,46.504605,4.459394,1
8.205551,204.665829,17414.520623,6.839622,276.770098,346.540729,12.505601,83.916749,5.129528,1
8.310374,201.651667,23260.472005,9.345621,333.27137,292.315837,12.024866,63.64262,3.493054,1
7.080795,240.036279,23103.653539,8.643089,339.158877,487.434555,15.193704,88.785469,3.98092,1
7.833971,240.832529,25694.873706,4.300509,301.760386,442.741389,16.889098,96.899576,4.814917,1
8.14266,220.630972,20111.225948,7.446877,354.897131,366.802484,19.721288,53.719366,4.617093,1
5.896432,165.135658,23022.168945,7.536806,356.756191,401.740921,18.363573,80.124746,4.280793,1
7.080795,228.109459,15617.458577,6.326534,326.504893,402.600657,14.652334,80.340185,3.490173,1
4.310701,138.431894,11842.757806,5.60745,364.458497,426.369592,19.588327,48.118629,3.172375,1
7.895769,168.724047,28723.617627,9.341475,353.976181,517.436676,11.992772,79.860552,4.391731,1
6.862995,184.480659,11579.113398,6.149494,364.1102,556.956271,9.246908,34.24978,5.343285,1
6.304769,213.656178,30168.606596,5.21078,333.775777,339.116587,14.947676,43.576389,5.109935,1
6.578681,203.408815,22374.82491,6.248929,399.617217,547.702137,12.09792,71.338489,4.292042,1
8.967244,266.478743,34446.782262,4.909573,333.775777,343.265556,14.263396,64.95967,3.742256,1
7.080795,166.404968,14202.193805,9.006796,370.538524,493.440244,12.45316,59.804167,2.848371,1
7.423088,210.046197,31073.031338,6.374709,312.103161,460.894212,16.80599,41.607907,3.712682,1
9.166758,184.557434,21736.981799,12.227175,304.528521,317.583367,16.779566,51.052287,5.429266,1
8.468694,151.954301,19148.224744,11.930448,390.807361,374.99469,9.90173,70.269959,4.375599,1
6.486153,224.809456,26807.119512,3.267984,319.074358,382.879844,10.66503,63.727693,3.246794,1
4.439096,190.153449,20864.340465,2.386653,333.775777,515.631205,18.081003,63.363082,3.844231,1
7.792784,187.912476,21093.932205,10.585501,390.40907,463.019373,11.462825,80.921398,4.047381,1
7.205218,188.911312,31315.614387,8.323041,333.775777,398.91886,15.67421,69.5511,3.465331,1
6.569054,208.731454,29123.708304,6.765118,327.697541,308.08605,12.360292,65.750173,4.204699,1
7.080795,182.257814,17540.742498,8.422476,333.775777,305.827535,11.805005,61.696113,4.164773,1
4.291688,124.00735,18038.474366,8.603297,333.775777,548.574462,15.682821,91.86096,4.616089,1
7.080795,176.413638,12674.672773,8.988477,354.768115,344.420435,12.682869,83.567356,4.403877,1
4.921094,162.300594,14126.59053,6.406814,357.815929,337.773051,21.237899,65.704481,3.285187,1
6.727185,197.439216,26012.488746,6.952008,346.628735,473.330078,18.437835,69.466289,4.158249,1
5.757089,148.989146,32415.733624,9.17856,319.222936,407.741713,12.120956,42.218845,3.730185,1
5.842359,217.3248,29644.813606,4.179108,328.503921,310.771178,14.335395,62.654956,3.865296,1
8.848103,248.56774,19793.971867,9.681154,323.351749,411.147433,18.137805,68.753074,3.074799,0
5.866251,146.86568,19679.06267,4.86848,320.012372,414.427017,15.522773,84.403684,4.281313,0
6.020995,178.500297,13095.149161,7.944802,333.775777,437.298995,13.770783,59.872433,4.806017,0
7.52993,171.814197,27062.065889,5.029569,378.241782,325.099756,13.786737,97.24135,4.585322,0
6.649705,190.531947,16191.426091,5.254959,333.775777,564.203178,18.443031,42.815366,3.085179,0
5.097786,182.819015,23590.313712,9.128798,326.334863,445.562644,15.137781,68.608103,4.829323,0
6.483995,180.445051,29032.781103,7.301735,326.300098,374.675738,17.885877,75.939716,2.688643,0
7.080795,253.149651,12037.770386,4.384358,325.413248,422.389292,13.168299,40.052151,3.399945,0
5.669699,199.662637,9544.862671,8.808247,343.485533,378.120393,21.780373,80.488274,1.910117,0
8.12771,203.070309,13227.052382,6.310902,362.275707,409.742224,18.277277,78.929579,4.244173,0
9.106917,209.609618,16879.52477,2.102691,333.775777,294.310081,8.064296,70.190625,4.186726,0
7.575758,203.884373,20855.272321,8.109312,334.02742,532.311188,14.236013,74.638706,3.176433,0
8.246369,207.172168,31080.432076,6.09636,332.766156,369.029213,17.533954,55.030175,4.433257,0
2.945469,126.7481,16829.393039,10.597395,333.775777,456.23319,10.157139,79.310557,5.069983,0
4.96407,168.283365,17694.574833,9.725321,333.639511,353.069939,17.293732,67.252514,4.761701,0
4.991397,141.622395,44499.72871,8.260928,335.50983,534.711455,15.350873,62.896558,3.926599,0
5.045626,179.702503,22557.603596,10.120334,296.425154,450.295696,14.215817,82.066334,3.331787,0
7.080795,206.263418,18221.085342,6.237135,352.159226,547.325318,11.759852,62.348388,3.469561,0
11.069456,256.20198,43536.020874,4.04762,333.775777,433.476011,12.427395,55.732991,4.880512,0
5.775331,169.728169,14710.722831,7.261811,359.266962,535.65256,11.772464,67.297199,5.16426,0
9.0121,268.679299,13064.450591,7.625641,358.33676,549.827142,12.015868,63.698404,4.962329,0
4.03161,145.483239,15105.373098,8.180813,333.71087,342.979013,13.806406,85.679053,4.037939,0
7.882124,235.466405,5477.347215,6.476057,333.775777,443.894736,12.17852,34.194404,5.364172,0
8.759489,219.92139,33364.918123,5.687072,324.038506,443.548006,17.763343,79.747868,2.889578,0
6.65365,172.584512,34816.444538,8.289307,293.611048,389.471149,15.872474,67.976869,4.871406,0
7.080795,179.962351,22060.186872,8.296497,333.775777,386.417641,10.080116,69.904835,4.963535,0
4.473882,120.101908,30013.700749,6.369371,333.775777,433.744392,8.510883,100.232295,4.893657,0
9.34947,252.148499,13137.490762,6.173823,320.323984,349.816084,13.109898,58.801291,3.778023,0
6.862936,220.147889,23580.65729,6.611543,285.192181,325.721747,13.472758,89.412935,3.806093,0
8.261406,208.188086,24870.825941,4.925015,333.775777,441.052571,19.095664,50.66315,2.800428,0
8.860324,233.625145,19550.29968,6.519063,333.775777,285.412436,13.093262,25.061904,2.476674,0
7.496511,207.137328,39423.666065,8.494115,325.403993,569.569223,14.313987,66.396293,3.363403,0
10.164173,243.606508,16522.715754,3.992171,310.845072,487.698052,17.223237,83.871496,3.530941,0
7.080795,167.466192,11532.223178,7.709711,361.009311,625.346772,14.151538,74.831194,4.086176,0
6.039823,164.02634,9943.637599,7.723305,350.756261,374.794719,16.668446,65.542662,3.923766,0
7.080795,183.488839,12675.938962,9.777807,319.870584,482.445026,13.309723,46.85341,3.240419,0
6.057905,149.122794,23603.50187,6.537028,302.698631,393.293478,17.615229,54.217939,4.269753,0
8.005016,187.230535,49341.421279,4.33931,300.697128,437.325507,13.972014,66.396293,5.288777,0
7.080795,193.46242,18519.162494,8.021803,333.775777,374.317888,13.749363,43.744705,2.676594,0
7.038348,199.597943,23951.105987,8.229993,320.483754,419.6622,11.964072,63.925554,4.575578,0
7.080795,202.569467,22256.950365,6.913501,304.951498,434.198436,13.696893,64.205667,4.47807,0
8.237092,212.818563,24414.973485,5.413978,333.775777,445.555901,12.40991,48.560914,3.686074,0
6.574084,186.944211,22723.809959,6.212265,330.789695,385.018951,12.062534,72.595277,4.977324,0
7.338108,188.854169,30042.928506,7.467624,309.61456,465.499871,11.054093,47.183651,3.73638,0
4.851104,146.627237,20227.643783,6.340534,368.941214,346.52031,15.266726,56.989926,3.644107,0
6.91792,223.332959,17862.142732,7.99589,299.402773,428.948023,12.230908,68.836829,2.691485,0
6.709336,226.427586,8238.290038,7.692413,289.92138,284.774459,11.86848,51.875207,4.074387,0
6.894051,170.571298,17475.467754,5.194784,363.308755,641.586087,17.18318,40.916572,4.568843,0
9.864727,278.081446,12978.197126,6.908572,319.382002,486.637938,14.351341,84.798792,3.701895,0
7.080795,210.204921,26894.14489,4.312762,329.146438,344.51515,15.109191,66.396293,4.903914,0
8.039697,233.856219,8201.362113,8.293018,333.775777,461.20978,12.87796,68.750868,3.826063,0
9.824706,218.01953,15120.924716,3.124833,333.775777,498.933519,14.836624,42.168234,3.226035,0
10.887305,283.895864,15177.21819,4.656538,334.180833,420.607649,12.702489,72.102324,4.004161,0
9.831402,263.632722,13345.369098,6.566929,295.774218,462.439737,12.002323,76.021367,3.311808,0
6.528479,176.939676,18533.337828,6.083268,336.296413,491.477924,13.531264,96.944104,4.063276,0
4.091411,146.789938,24252.458824,7.254981,282.693502,482.294404,10.611556,70.069442,5.952325,0
7.080795,197.712183,12962.389673,6.476584,362.721954,503.843001,18.892393,80.346348,3.500849,0
7.080795,232.864391,32600.429406,6.702672,343.5987,447.394685,13.900089,52.892085,3.165391,0
7.080795,192.617662,36520.658697,7.45897,333.775777,474.147899,16.986365,82.440202,4.32399,0
6.175165,193.282602,32875.192057,10.896663,337.506211,414.902017,12.997823,69.867382,3.341369,0
8.736126,257.231329,12726.298639,10.326558,356.415434,506.375934,11.337489,69.425715,3.368533,0
8.240946,245.090825,18001.459186,9.367419,350.614962,344.056871,13.90471,66.396293,4.666295,0
9.152285,229.540413,24560.700606,7.042326,372.694465,395.404362,14.253308,40.974355,3.792777,0
7.080795,208.837711,11609.997159,6.44528,333.775777,407.017398,7.070771,76.383521,3.813436,0
6.317577,143.299959,22577.818935,5.690078,338.8972,573.814744,15.315515,48.973887,3.399048,0
5.692124,165.90628,22396.209254,6.682692,309.121602,530.07252,11.472016,66.396293,4.682391,0
7.080795,201.83372,29508.492814,3.929624,325.061246,428.661398,8.819491,76.373753,4.115321,0
7.080795,139.95535,31421.144495,6.627705,346.441155,378.771076,17.544485,54.798767,4.536181,0
7.191494,175.460782,34933.784401,5.427533,332.196048,411.302087,11.665995,60.281932,4.320684,0
7.381109,188.314378,12320.512292,5.493514,343.239612,475.301884,17.826838,38.337345,4.342738,0
6.172517,187.787017,10498.635154,7.722561,322.521035,467.090425,21.233978,68.163642,4.129985,0
9.076318,215.912723,14153.643378,5.020027,333.499203,311.797042,10.776321,69.114593,3.436986,0
8.85412,222.965198,19258.803073,5.696064,395.728541,467.088442,10.454029,73.779007,3.46135,0
6.76806,179.805992,23793.031358,5.332099,333.198191,461.530446,13.557381,60.571241,4.145807,0
7.080795,207.059114,30573.066315,4.438197,341.885682,393.513256,15.564637,81.421514,3.109696,0
8.543217,183.90786,33037.353387,2.726766,358.556471,631.498623,17.333153,68.183227,2.847875,0
9.564853,251.806665,17156.336705,6.25318,346.705209,410.32243,18.627126,82.955872,3.182805,0
5.499788,150.07609,43195.473668,6.570596,322.516582,287.286057,11.230408,71.821281,3.66822,0
5.195921,175.157155,33473.112518,8.40745,319.253631,484.27989,16.812767,94.356954,5.375902,0
7.283914,197.602125,23112.504435,9.502809,332.331985,449.361679,14.458591,70.000219,3.571863,0
5.87244,185.403976,14343.423207,9.690213,333.564587,409.113512,14.74124,64.183725,3.741067,0
5.735724,158.318741,25363.016594,7.728601,377.543291,568.304671,13.626624,75.952337,4.732954,0
6.158424,176.03145,26369.02657,9.771212,347.893738,453.705993,13.254689,61.057778,5.080498,0
7.294364,191.77362,41569.951985,5.311112,321.320551,342.501387,13.792535,54.463525,3.336582,0
7.054267,212.429124,7450.074375,8.72711,333.775777,396.052782,11.383954,75.219338,4.780616,0
7.080795,199.942222,25973.326631,6.490994,336.040741,344.970363,12.640414,46.854524,3.151768,0
3.148712,142.272084,23257.208834,8.279275,293.1608,391.841303,8.923594,68.316612,3.465638,0
5.665266,162.890083,31883.010307,8.312484,350.681732,550.817564,15.632268,72.457385,4.571824,0
8.310939,245.71961,7929.504749,8.83239,373.463544,348.618543,14.105872,84.740568,4.40856,0
7.096098,206.827818,24548.598299,5.379861,333.775777,365.400809,12.495189,79.295423,4.56976,0
7.957114,199.107505,20425.76649,8.171995,380.078173,333.156538,14.53785,62.246358,3.729873,0
7.400239,218.824813,8136.071591,6.286358,310.76116,518.732778,15.186342,50.837013,4.88012,0
9.73462,244.928666,18976.233076,4.74597,330.635788,383.947537,14.897001,66.396293,3.506503,0
8.037761,199.213971,40368.420627,7.307411,333.775777,293.833466,14.254682,68.763418,3.572519,0
7.080795,250.572683,24538.437293,7.287605,345.109962,426.103715,13.984156,60.15973,6.099632,0
5.681811,151.085937,26373.495428,5.651589,333.775777,468.472601,8.623795,102.246447,5.375157,0
8.39451,224.347147,23961.504535,4.724373,337.406342,476.579456,17.213676,64.975961,3.712473,0
8.528292,227.686207,27352.343415,7.676323,349.995746,388.137754,12.611736,80.186071,4.596924,0
6.238054,178.298051,21919.593435,7.085377,335.858369,287.572947,17.459888,46.953271,3.848307,0
5.870616,186.178376,18909.846006,8.494235,328.747315,427.182531,13.300024,52.162419,3.728785,0
6.433726,176.857122,26755.718839,6.533469,316.541468,505.122015,21.319607,60.126344,3.117918,0
6.069364,200.916263,9323.21829,9.387522,325.466983,450.441352,12.42338,73.914026,4.914809,0
6.660462,229.339332,9632.730976,11.29939,326.157043,439.121301,21.157991,40.096696,3.673136,0
7.506111,188.221812,31920.584694,5.714312,334.243304,436.396995,15.220967,43.360494,4.744007,0
5.895146,192.041369,14704.906246,7.905769,305.807737,429.766223,15.018138,44.887598,5.075214,0
6.449237,218.907288,12812.557124,10.908687,333.775777,421.29685,8.01042,79.085532,4.065148,0
8.550525,209.682466,22377.27295,2.654491,322.156037,413.673586,12.996761,42.989849,4.591997,0
7.122637,183.402648,31295.90241,4.425026,333.775777,411.61607,14.066057,77.185792,3.750447,0
8.558663,214.107325,38767.756369,6.6081,310.014951,382.622275,15.896958,57.196827,2.590635,0
4.624304,121.036319,22981.749411,8.297074,372.037359,260.566164,13.05403,66.553465,3.42425,0
7.080795,143.099103,19290.568068,6.084325,370.86955,486.059304,13.924732,63.802302,4.117288,0
6.091383,192.121052,17279.962198,8.927043,333.775777,413.248334,12.739818,85.027034,5.07552,0
9.658662,240.34882,20269.73128,7.050729,374.181674,567.784276,15.587206,55.835966,4.639387,0
8.115625,200.099013,15513.012581,6.046111,333.775777,421.060326,8.320276,53.775592,4.408812,0
7.080795,209.164518,7845.472891,7.669132,433.69432,421.625238,16.35222,66.396293,4.454641,0
6.914868,206.249937,10343.378848,7.771206,324.38317,521.320673,16.17373,68.246945,2.988611,0
7.337924,188.799302,24266.517893,6.84485,326.254701,500.386469,13.373369,65.909057,3.935514,0
7.766114,212.317666,24145.385762,7.925887,364.081412,464.108595,15.465256,70.105844,4.399902,0
8.433975,240.077927,10823.300365,8.418958,317.301369,426.175253,8.077156,49.270115,3.167712,0
6.891549,184.074628,13376.680472,6.866435,333.802475,508.681145,16.586205,81.712849,4.958937,0
5.946161,190.551572,12767.656229,8.939748,323.742827,499.937502,12.41543,54.095581,4.903632,0
6.363836,207.422436,9844.702293,9.765921,320.630725,466.592544,19.156261,58.265305,4.038984,0
5.331799,149.955047,19693.906772,7.14614,336.011908,285.998049,14.298579,46.113763,4.734874,0
7.080795,232.600151,10634.059045,7.558162,334.049963,542.211433,14.013542,85.215095,4.799013,0
8.466013,224.174936,22523.124552,6.668868,286.943922,330.044715,17.744096,77.817804,3.946621,0
7.426274,192.145254,36990.955947,5.101158,333.775777,590.507222,18.73638,24.734227,4.363336,0
11.219135,237.582673,21871.785173,3.074316,333.775777,374.021655,15.804451,64.486384,5.749586,0
5.708517,187.081758,12193.611261,8.288505,351.573257,577.40281,14.357648,66.396293,3.344285,0
6.559628,152.115213,22624.034182,7.761108,387.51881,393.820412,10.107462,55.286671,3.664463,0
5.606315,190.335273,12308.233835,8.548754,311.680166,399.606494,18.52432,67.22634,3.748741,0
7.080795,183.219904,20311.402466,6.790897,381.459023,344.967064,11.138459,71.704595,3.887362,0
7.080795,187.019185,28988.702343,5.588013,333.219047,478.773083,15.011414,69.805133,3.66687,0
7.080795,223.890412,8722.153022,8.569451,333.775777,375.142277,15.430847,64.564143,3.4403,0
7.539338,227.316128,12610.936307,9.507585,345.139235,343.242711,12.76907,82.826282,5.114129,0
8.849703,197.779047,20129.358792,5.182436,329.502104,356.476723,11.882861,45.706793,2.987672,0
7.682762,211.663852,12723.342101,6.672341,380.945603,360.107441,14.175317,69.949675,5.044306,0
7.080795,172.968203,24445.98754,7.032643,333.775777,571.628892,11.549877,56.499207,4.725347,0
6.448191,181.589885,18460.67893,8.727867,333.775777,353.604292,13.939425,73.990539,3.93221,0
10.199413,256.704338,28703.75114,7.940595,326.462666,552.162181,8.802847,66.396293,4.384868,0
7.766187,223.057835,14945.295661,6.026817,333.775777,482.406236,6.747761,83.186751,3.674225,0
7.080795,191.301359,17540.576643,8.779726,333.775777,323.812116,19.072827,61.560328,4.129301,0
9.756578,244.461342,17940.09908,7.149053,333.775777,337.713569,23.667667,73.233466,3.749009,0
7.080795,159.399398,61227.196008,3.713594,312.976254,377.067972,17.246698,82.197233,3.860807,0
6.406798,182.885137,17851.064021,7.462758,332.486731,398.779746,17.301617,64.070236,4.573968,0
7.080795,253.054389,28864.910281,8.524371,364.749482,479.699763,15.823074,70.75819,4.697041,0
8.445219,228.52286,28966.569327,6.179855,333.775777,361.705354,14.55422,60.61223,4.400706,0
4.137045,116.338278,17101.951569,8.65221,322.892252,360.648078,7.848313,70.977001,4.327356,0
7.675914,233.300759,23673.100606,8.407497,333.775777,232.613624,18.459408,60.99359,5.040461,0
7.080795,243.682558,20976.791778,6.502257,350.449897,487.556493,10.451629,84.178845,3.558445,0
5.701101,170.496311,17121.505917,9.536011,374.775876,378.873855,10.97215,63.293296,5.956753,0
6.376576,177.50999,41243.038029,6.66992,333.775777,486.806051,13.490788,65.366392,4.161586,0
5.517737,190.669928,17638.322473,10.525858,333.775777,461.928981,12.531684,44.887843,4.523106,0
3.854618,131.396253,19639.796002,7.753502,305.382914,456.512274,16.864722,81.526123,4.290435,0
7.558076,253.840904,16642.884178,11.224395,333.775777,555.932991,15.154628,81.746095,4.169005,0
7.387434,214.293032,11694.635285,9.273679,375.505583,356.805855,15.184509,80.231172,3.830577,0
7.763415,193.721119,20019.261215,8.344391,373.59779,375.072875,11.43598,28.993636,4.113536,0
7.080795,205.551854,24820.493091,7.226878,329.4044,386.307546,9.223072,69.703026,4.25222,0
7.50935,192.467955,17045.600095,8.815845,346.741822,266.357744,15.930051,83.262529,4.321856,0
7.080795,119.88581,22331.237876,8.051538,351.161427,472.064091,16.642815,62.647091,4.659395,0
5.057271,155.487725,19003.963899,6.250893,305.849797,518.101816,15.772438,97.199077,4.432271,0
5.830542,165.467025,30021.257079,8.433097,334.397777,494.154505,16.666613,69.580253,5.192117,0
5.85969,163.496895,19231.03329,6.541681,339.37148,468.376955,19.749079,61.79098,2.747333,0
8.891674,184.869606,41801.441837,3.409576,337.047108,461.076821,13.715504,42.078122,4.522599,0
10.154219,244.209385,24755.960256,4.71135,299.797515,387.589427,15.363599,70.823244,3.730899,0
7.080795,227.432663,32102.190705,3.646848,321.671073,433.276491,11.690091,57.04969,3.581037,0
7.683157,221.575347,25475.884844,9.914966,333.775777,372.803909,12.054439,51.8925,4.781323,0
7.455541,225.314151,16242.060281,8.204102,350.108093,331.673824,13.114965,60.162148,2.930365,0
7.080795,217.944979,37820.047327,8.299339,333.775777,367.570082,15.421034,36.446614,2.99478,0
4.811832,150.45128,27547.807056,7.569544,296.002194,521.561561,16.295837,44.288552,2.860993,0
5.720136,182.44016,13463.852419,8.253966,333.775777,401.509481,13.361778,52.952904,3.513255,0
9.961503,276.699765,18743.222494,9.16074,361.221166,457.551559,21.564489,93.740334,5.21559,0
3.230973,120.785449,13691.094972,6.835951,328.240289,261.435215,18.406139,54.852123,3.281921,0
10.188433,286.567991,7105.800709,9.84054,321.686059,437.879508,12.871599,78.732055,4.635243,0
6.262907,185.982652,5157.0536,7.804391,338.195387,570.28826,14.601443,66.396293,4.594919,0
7.399811,229.776265,28630.954416,8.711706,302.315759,437.366909,11.927552,78.576441,3.803724,0
9.271669,256.273393,26912.228417,5.76678,274.646117,467.752318,12.376686,89.90495,3.744204,0
4.704184,169.943914,7028.839617,8.987043,317.829814,289.537529,8.069436,63.664949,4.138994,0
8.654793,218.17266,14799.311464,6.164049,366.147992,416.870333,8.95452,72.62028,5.148138,0
8.018772,228.111463,27405.316212,6.49136,333.775777,494.620441,8.716667,56.188852,4.356279,0
8.189363,229.608499,13197.566815,6.007956,334.054289,605.465747,14.861377,103.322855,3.688298,0
9.341092,230.430056,18254.110656,6.113974,333.775777,294.582832,12.908755,91.856527,4.598787,0
7.080795,228.251995,18593.222636,5.905207,333.775777,475.295733,13.672647,54.492469,4.12285,0
4.89196,153.506232,9559.547392,7.847066,349.82439,496.872845,11.457624,61.110529,3.90427,0
6.056818,211.765886,4440.277357,9.507303,333.775777,316.921776,17.766397,53.541191,3.358061,0
5.655117,146.762023,19271.903123,6.391439,316.495631,469.895002,11.971417,62.004563,4.401152,0
7.890263,164.708035,17645.06534,7.14136,333.775777,634.118133,21.977158,33.279298,4.636739,0
11.90774,298.098679,17083.175085,5.878993,333.775777,400.330798,14.06337,64.368593,4.256415,0
8.811472,270.209549,12138.422954,10.520555,360.295574,437.515421,15.95268,67.878497,5.587396,0
4.126581,113.024472,40528.805353,6.489951,333.775777,392.109146,15.793392,68.797443,3.504751,0
5.735359,149.17169,28628.151856,5.073074,333.775777,465.554894,12.20195,65.90985,4.085055,0
8.000776,237.51925,18419.132883,8.32333,308.006321,396.376554,13.492536,82.753278,4.51921,0
8.775047,191.526874,21768.640744,4.751005,387.245552,435.523398,11.875184,56.029098,3.830699,0
8.303831,222.950037,26030.618514,7.108974,333.775777,368.284494,14.383585,70.0727,3.392657,0
5.082241,191.767047,17739.19896,9.111722,309.787515,413.158636,12.307109,88.892555,5.056379,0
5.813546,184.031776,10112.207322,6.536992,309.451187,441.594027,11.438175,77.508193,3.721426,0
3.422394,141.300305,16017.611896,8.214714,333.775777,580.870759,10.60328,94.949108,3.676246,0
5.913375,148.607944,14467.785926,6.159095,333.775777,427.040982,14.423404,56.460386,2.499832,0
6.783024,236.278867,8213.772245,9.332861,333.775777,501.018535,11.590707,91.680931,4.778808,0
6.83606,205.667718,18321.327502,6.712854,297.837188,494.484249,13.808923,70.714225,4.952508,0
4.884388,136.557785,28392.424976,8.4404,333.775777,386.104,13.831877,73.824556,3.616701,0
8.331553,238.992414,11635.772076,3.923239,276.40228,406.245129,15.410764,66.396293,2.692389,0
7.819659,225.106836,16403.952381,7.09331,313.168134,413.208949,15.375616,32.681851,2.402337,0
5.428357,167.017383,24930.198811,7.967086,334.086977,400.393437,18.179149,70.312696,2.847844,0
4.556657,156.422941,14400.718629,9.461285,333.775777,483.745716,7.897724,54.913943,4.392257,0
7.333003,189.447965,32358.538595,6.346378,341.346443,490.625291,12.537466,61.581378,2.642004,0
7.114387,196.53396,27022.708505,6.176786,333.775777,497.523605,18.704279,59.730438,3.762682,0
6.37695,170.22708,16079.36125,5.433802,331.856892,311.7729,15.703707,54.013112,4.284387,0
9.338235,248.376016,17416.80178,6.665873,342.720808,505.677409,19.742815,58.65853,1.872573,0
7.080795,130.558561,17429.58495,6.317654,322.059588,524.645643,15.318048,75.376408,5.541322,0
8.933878,278.231754,14179.622741,8.128262,318.356502,335.240511,16.6649,48.357257,4.374797,0
10.60059,274.968783,21558.308741,6.112819,350.363703,331.120496,12.610799,66.396293,5.4777,0
6.838817,196.196213,11877.236649,9.624699,365.34884,363.803476,14.924058,41.121382,4.776536,0
5.600877,183.573783,20411.664381,9.753766,336.404819,368.359984,11.095878,66.820124,4.362034,0
6.102533,179.397232,24196.264415,7.155344,321.442113,525.900095,13.47815,60.05829,2.292574,0
6.490923,189.031588,30453.623186,6.060119,297.512799,476.916726,14.97397,47.012889,4.372333,0
8.506979,197.745141,20098.199518,6.456556,344.127253,555.919796,9.028359,78.933096,3.881794,0
7.413288,196.452302,17465.345582,6.309196,355.164792,300.933492,13.178069,80.604776,3.290106,0
7.080795,252.404565,20197.247668,2.562255,350.547757,454.969812,12.031863,69.292252,5.146443,0
7.586236,190.890219,16409.93656,5.739025,333.775777,402.799497,13.906082,95.382662,4.351335,0
7.103348,249.589359,4425.42644,8.211762,293.078666,268.44085,18.422985,68.474194,4.417194,0
6.153496,163.205548,48175.852093,7.153803,299.566751,344.716976,5.15938,55.528949,4.81997,0
2.376768,129.863973,11684.111637,9.974808,301.429747,503.91039,8.741258,76.310695,3.629218,0
7.514836,215.439523,17017.42996,7.417041,335.652454,483.658028,14.532854,66.037246,4.299732,0
7.445189,225.397787,24741.534999,9.248499,333.775777,402.115616,15.535979,87.083919,3.637895,0
4.835298,136.295037,23031.215807,5.560179,358.933089,567.46367,11.505803,60.773857,3.633761,0
8.37628,248.132861,27824.190483,7.100523,343.057975,433.449899,18.658886,53.30376,5.703963,0
7.945909,213.066407,16769.890546,4.74534,292.419247,478.16671,14.189856,82.054404,3.585431,0
8.727779,202.419505,25521.889224,3.830238,326.907924,461.958812,16.611458,104.37325,3.83154,0
6.089431,207.267133,11339.166055,8.888347,317.279123,531.768988,11.674318,48.35825,4.366861,0
7.172323,191.389422,14702.059069,6.557105,313.866282,525.03102,12.630182,108.265227,3.084216,0
8.332953,236.532404,18881.795178,4.275693,333.775777,384.729162,15.121055,55.507739,3.4083,0
7.080795,231.973298,21460.83816,8.673483,360.672211,375.082059,12.178788,66.864501,3.955091,0
4.563371,152.907561,13490.608148,7.499917,338.584921,524.108024,14.143989,69.01624,4.825179,0
7.080795,181.080656,30050.439446,7.975631,360.086901,378.154234,17.674565,66.396293,3.522486,0
3.676845,173.677702,22581.224488,12.653362,289.126846,599.729246,8.386407,49.658554,5.461473,0
7.080795,169.355927,23133.662353,8.247828,337.047896,330.355323,14.74909,58.356851,3.517153,0
7.88908,208.402367,24974.692774,7.296282,333.775777,453.166987,12.52968,60.435016,4.034041,0
5.525769,188.15598,16113.010554,8.306926,333.775777,363.471851,12.094513,74.718676,4.401413,0
4.858056,159.695554,32886.528899,7.689305,333.775777,337.388035,23.108016,76.094469,4.130972,0
3.27282,145.492306,7408.976196,11.996015,336.687809,433.709672,10.458874,66.396293,4.318516,0
7.117579,186.19968,31528.94869,6.387037,335.348881,380.578265,19.073996,75.903072,4.333402,0
7.822257,200.002793,22411.006864,5.283594,343.080377,593.483602,12.273073,75.256212,3.080866,0
4.334058,155.82935,13351.41383,8.603927,321.786965,387.521833,7.809445,77.879219,2.613532,0
7.080795,214.035312,10039.538376,10.130125,383.754299,487.421635,18.917584,51.485351,3.259749,0
8.839584,246.066476,21179.762588,7.717662,343.047384,753.34262,16.917901,60.436032,3.118039,0
5.290667,160.432029,9265.104948,9.272066,358.547147,464.573338,11.220817,67.646066,3.530574,0
7.873272,182.646658,25337.122963,3.715065,362.484604,315.189948,12.132425,65.499925,3.306393,0
7.148441,173.272818,30656.163113,4.737826,333.775777,525.884833,14.567819,57.822023,4.30857,0
6.453605,175.47934,25257.649286,7.62653,263.401258,376.524887,15.755402,66.396293,5.568265,0
7.080795,189.823418,20278.338272,6.79994,333.775777,314.834175,10.092087,46.629299,4.940015,1
5.654119,171.751551,16431.204897,7.283454,387.904632,419.097306,11.814852,86.308236,3.466264,1
7.650683,239.490148,15326.925014,8.927896,373.436312,425.336352,17.883592,66.396293,4.043711,1
6.418203,173.446214,19617.308494,7.396472,321.86525,391.667466,18.453951,46.345864,2.670977,1
6.848,199.776814,26296.9483,7.339173,354.250555,397.536471,22.139958,51.534965,3.815228,1
6.991685,152.976217,20389.593816,2.64839,331.252916,460.146174,15.485378,69.670038,3.724824,1
5.924799,111.478582,15413.896148,6.90003,347.861837,277.588075,13.261143,74.193995,4.188928,1
7.52668,192.167096,38468.413584,6.616368,290.64174,449.317534,13.055894,58.768613,4.148223,1
7.080795,233.063426,36640.371366,10.000218,435.115189,337.664412,16.635476,61.07371,4.849755,1
5.324641,142.806978,728.75083,8.403316,333.775777,496.997602,15.174664,60.077852,3.652003,1
9.038326,227.357659,34353.839725,5.573277,231.053687,421.664482,16.331421,92.643383,3.706266,1
5.945989,151.685797,12356.905622,7.89412,342.029115,471.122125,15.725467,57.683067,3.793329,1
6.195087,195.44316,19331.194042,9.112558,342.871807,425.502874,17.212455,85.114196,4.196558,1
9.062822,246.629701,27959.926161,5.649971,308.780769,434.395439,21.142053,44.149348,3.73037,1
7.137429,210.50275,17506.608803,7.304928,301.642004,304.239481,13.076007,64.230942,2.964181,1
6.232011,208.668172,12149.69673,8.560039,333.775777,325.344706,13.246995,33.380354,1.641515,1
7.780869,221.844493,40483.730389,6.146098,302.329674,563.719967,11.753046,51.559465,4.602027,1
7.150046,238.79823,14708.474185,8.606774,450.914454,365.739122,14.966532,53.144979,2.633891,1
4.574125,134.201289,22520.41864,8.191827,403.34239,372.200139,11.260914,69.047159,3.0865,1
6.179312,159.773264,21532.519232,8.063335,272.440848,509.77211,11.010545,99.996286,2.951961,1
5.566328,153.775514,14574.6611,8.01155,333.775777,388.050362,14.200557,75.555219,3.424761,1
7.080795,160.095086,26561.569491,7.187022,322.090465,372.623529,11.455203,57.150958,5.13678,1
7.185168,209.68314,24909.783147,6.69107,333.775777,501.78542,16.088648,75.671329,3.955847,1
7.080795,160.915815,13943.244974,8.39973,380.768478,344.154228,15.208691,75.575056,4.141552,1
6.990453,225.923446,17679.351101,7.248867,377.86804,527.205818,13.787264,87.83905,5.184442,1
5.810742,151.876172,25419.551655,7.874166,313.364797,494.152974,14.646685,77.373813,3.436967,1
7.444166,211.446324,20003.497681,7.238302,333.775777,524.645235,13.778226,49.900899,3.820866,1
4.374878,144.237181,17384.257186,8.898436,333.775777,402.271182,13.715804,55.989796,3.030108,1
6.60254,174.632977,21607.483238,6.581327,308.931421,657.570422,9.064445,68.827047,3.592496,1
6.857494,233.210575,22603.649454,6.627059,368.105783,412.434677,16.926175,62.5579,4.306581,1
7.080795,176.772186,19486.191112,7.960133,412.407278,276.58861,16.710056,33.56304,3.888177,1
6.789821,197.300014,22527.681207,5.166942,399.981755,422.482029,15.916605,47.935105,4.512068,1
8.560349,244.796705,14254.661316,7.4539,315.971147,500.586608,18.228749,57.365541,2.939213,1
7.080795,113.175965,9943.929785,6.337138,354.297565,415.338337,19.676169,23.075806,3.787476,1
8.277058,242.559246,12715.81428,5.128733,371.302747,561.761156,15.220021,61.799014,3.751324,1
7.080795,157.781555,13711.723282,6.133935,333.775777,289.746674,13.172721,60.457764,5.06847,1
6.921257,158.292057,31177.133369,6.978993,333.775777,531.657443,11.482187,59.998554,3.540384,1
5.636924,159.13941,27283.780655,6.918727,328.907287,317.830981,13.611408,36.335199,3.007138,1
6.607503,231.565799,26420.809564,9.57782,418.240943,443.315775,15.671203,61.364421,3.447111,1
4.951414,153.21215,20117.359061,8.985572,391.069045,418.330195,11.831691,68.387613,3.870681,1
5.913133,184.393156,40847.760146,7.041828,331.959964,563.40997,21.917377,58.839203,3.900211,1
7.080795,232.468727,15873.034428,6.365469,313.263607,365.626487,10.392937,59.659209,4.706775,1
5.796237,156.347095,15671.119287,8.408832,333.775777,571.613701,17.548425,74.402702,2.483643,1
5.039673,154.41833,23027.549759,7.759843,422.769068,490.332761,17.728389,69.508526,4.864866,1
6.163519,185.790317,37282.52249,8.240832,333.775777,411.183589,16.162059,84.931402,3.477245,1
6.339143,167.419711,16364.159409,8.095991,312.394079,372.511627,21.887088,91.066356,3.355765,1
7.610673,193.66187,20511.620832,6.654332,333.775777,394.595406,14.319384,39.497264,5.404818,1
5.782079,200.404795,25366.120687,9.270066,333.775777,525.532965,10.675518,54.081094,5.059362,1
6.451504,179.528925,7990.891468,6.196876,377.269841,386.541761,15.434513,74.99252,6.307678,1
7.080795,179.578095,47591.283183,8.097302,333.775777,548.87051,13.800071,58.2198,3.685593,1
6.920449,196.319401,39251.182129,8.493784,317.382315,487.504368,14.697845,41.753727,4.498818,1
6.549188,212.922141,19236.012495,7.96019,333.775777,424.398027,12.587048,49.585573,4.190311,1
6.393231,185.836158,17258.114035,7.329999,330.132139,326.427055,11.650393,47.640014,3.644388,1
6.100245,160.60823,13886.809713,7.542775,366.688795,449.948287,18.72286,64.390521,2.174898,1
6.359431,208.203021,23347.17271,9.000395,333.775777,336.58561,14.173906,66.396293,3.636495,1
6.272475,190.200713,14642.20554,9.734513,399.052941,448.56826,16.557177,74.435389,4.612536,1
7.080795,161.250331,23469.220867,8.392832,333.775777,448.787964,13.83628,70.20674,3.60022,1
7.493844,197.331291,26678.392879,7.198435,269.892347,375.503062,13.134917,69.590806,3.819947,1
7.635265,205.067631,17796.374638,7.156738,306.800286,370.561027,17.486815,32.92072,3.948304,1
9.097617,263.82412,38413.05709,7.634362,274.959028,437.263531,18.285882,74.512565,5.473663,1
8.040144,224.863482,6879.764653,8.136931,418.95501,360.957679,12.405913,73.21799,3.98646,1
7.296909,149.079496,15931.429226,6.550096,276.013273,367.904802,14.723055,62.634449,4.671448,1
8.226808,191.278681,16472.192309,6.863927,333.775777,354.926227,15.183646,63.416787,2.188702,1
8.014183,244.120098,30566.767504,7.714447,307.987458,309.930428,22.641598,61.578461,3.417076,1
9.252893,236.098786,12855.346238,5.784976,276.286305,329.922765,12.609077,55.61776,3.566435,1
7.288113,216.612475,18979.981692,7.66851,358.97862,384.694955,14.163607,53.313046,3.62699,1
4.865444,114.4639,32858.483096,7.47307,365.301135,533.303221,16.1516,45.647388,5.070254,1
4.762829,153.297018,22777.532069,6.841721,333.775777,522.736233,15.785509,86.128613,2.471786,1
5.141507,111.994028,11288.634718,5.84175,389.225673,315.229665,12.982476,81.159239,4.510578,1
4.88638,159.317972,38633.305169,8.370179,375.899169,448.050866,16.820615,59.18319,3.227849,1
9.454119,224.817132,21379.963927,5.407692,227.665635,431.613001,15.772334,52.033845,4.058626,1
7.000523,219.44264,26012.130278,6.280887,395.241329,483.319881,19.538635,46.861384,4.333689,1
8.323982,262.218585,21292.828755,7.076944,350.325736,538.792267,17.684655,72.343812,4.153783,1
6.643159,188.913541,32873.820022,6.791509,333.848842,336.561501,14.70681,67.844849,4.562198,1
7.080795,208.204531,17835.309013,8.93033,351.214962,278.260608,10.208344,52.248517,5.70969,1
6.758656,190.33728,20666.453159,6.78366,333.775777,484.608711,9.784777,86.695451,2.74389,1
8.628893,186.637712,13688.074339,6.289036,254.358801,392.706886,12.387633,53.150765,3.07135,1
9.794718,254.425066,12490.558276,5.99248,291.197261,576.046083,11.665297,80.698214,2.80713,1
5.376078,185.540478,36026.401556,9.649943,343.486633,347.565066,14.004449,66.396293,3.62925,1
5.603326,207.897187,36873.557989,7.631346,404.672921,511.43752,13.515236,85.345585,3.900421,1
8.592418,228.676036,33013.479774,8.172356,333.775777,328.55844,17.128155,66.396293,3.701288,1
7.266781,178.25771,27468.681707,6.043959,314.390628,400.624987,13.665328,87.131873,3.919827,1
8.064653,214.816681,27172.893573,6.369175,253.481228,490.280353,12.45883,65.399484,3.324113,1
7.080795,222.268721,18406.594176,8.183988,333.775777,395.448799,9.475981,79.85233,3.710958,1
6.336457,185.680004,25927.265432,8.199318,321.817662,490.972426,10.665799,51.552301,4.56122,1
6.166348,210.086558,37922.905616,6.760221,333.775777,217.35833,12.289238,39.978096,4.816304,1
4.533399,169.735222,30301.856674,7.074907,413.102198,385.656123,17.060491,70.293339,3.188641,1
8.951652,205.892346,15189.327822,3.016033,283.867695,406.309187,19.125825,65.639328,1.844372,1
7.210774,163.047283,14230.419131,7.352941,324.095726,441.524088,9.79301,89.919916,4.462408,1
4.238283,134.88951,29344.844476,8.180874,351.237362,402.427174,12.427378,83.762653,3.787426,1
8.264091,216.551887,23556.934353,5.830685,333.500538,450.857491,8.66772,39.804179,3.410511,1
7.893313,220.34832,14444.289598,8.0374,300.152172,339.066071,18.423634,67.009098,4.09736,1
4.855588,145.79037,14905.255912,9.829675,392.667482,459.288037,10.44659,52.289484,4.697153,1
5.230454,152.094169,24790.724599,6.30873,388.998079,307.918075,12.594197,51.625213,3.695615,1
7.017295,170.132446,20169.344252,5.21628,378.226971,512.768439,15.505992,64.624944,4.899611,1
4.941972,166.71044,19806.411303,8.031865,426.157519,352.039092,15.496887,68.608402,5.076147,1
9.638222,226.470215,30739.689085,6.849401,333.775777,278.251424,13.728883,69.26812,4.61437,1
7.3374,176.7535,18543.499362,7.127078,278.361177,427.930687,14.773005,85.680836,4.981834,1
7.080795,241.066929,22656.714625,7.293823,333.775777,315.604327,16.404805,46.139183,3.735204,1
7.080795,181.63015,22665.138528,7.221068,333.775777,521.873515,10.985422,76.126352,3.291943,1
8.257597,208.404166,20109.02627,6.230582,235.770982,528.068658,14.410778,74.984937,4.528575,1
8.315268,229.757446,15077.850343,7.053503,333.775777,446.95491,12.195094,77.52343,4.128525,1
7.080795,114.733545,13677.99404,9.9812,441.826777,524.000355,11.384858,71.153285,3.293848,1
7.171594,250.225297,22431.026987,7.697675,333.775777,462.766976,7.923398,79.697764,4.622736,1
6.941279,180.817722,15433.134837,7.140122,325.515857,480.878544,20.302337,61.520687,4.17896,1
7.080795,256.936378,13766.330789,5.083866,290.311034,384.906516,17.731523,58.354856,3.979297,1
6.888548,179.632475,30722.298233,6.579328,284.885743,393.493155,7.70101,63.293585,2.901432,1
6.833111,178.658074,31461.19676,7.942857,302.535371,415.097438,19.370328,66.396293,3.021574,1
8.247958,195.539536,28327.167338,5.378286,281.229853,588.699193,18.076938,70.793036,4.723231,1
8.92238,278.619448,21963.476003,8.105638,334.053693,385.874799,8.803475,66.396293,5.821826,1
7.356057,234.782302,31409.063979,7.39553,283.509583,428.753104,22.166321,87.399122,4.549917,1
7.080795,168.409525,26148.537873,9.03044,424.302122,445.345875,10.674582,51.876955,3.893327,1
9.752703,269.640378,10194.325411,7.978044,298.082462,580.003534,12.562615,51.353052,3.42211,1
6.844142,184.393043,41408.114822,6.459987,333.775777,398.046804,13.166416,68.89062,3.412853,1
6.910765,242.091338,7764.438022,8.04587,440.635509,487.93231,18.376802,45.306539,4.340149,1
8.801846,205.407825,13121.171943,6.701767,263.482728,399.283562,18.909035,67.963342,4.031496,1
6.283104,236.823214,26188.162174,9.364361,328.503515,470.821569,16.351912,68.910337,2.663921,1
6.354038,227.232895,16174.433739,7.567419,411.285251,355.527307,9.969701,82.492595,4.93524,1
5.928767,192.04842,19240.058202,8.986863,400.164161,459.260961,9.893655,52.157787,3.592912,1
6.823642,170.328172,14053.220679,8.120631,333.775777,544.011075,13.542213,77.227003,3.386363,1
7.342231,198.168804,35273.976229,5.268807,300.405924,448.151669,12.388549,62.743383,4.261504,1
7.14602,195.922102,22445.173303,6.652035,333.775777,484.442965,12.367109,57.530659,5.393476,1
5.089388,147.995271,39659.876898,8.424878,333.775777,498.70089,14.943585,84.254264,3.054045,1
8.594217,228.160901,29706.234224,5.92446,257.14865,517.844674,15.963752,52.950023,4.489545,1
8.149437,220.203735,23978.107683,7.384126,360.414005,461.804548,13.364677,103.38021,4.949257,1
9.271579,274.021391,38886.387679,8.045991,244.086257,504.616793,15.981068,62.320048,3.549608,1
7.021617,203.201197,12352.811105,6.845744,380.804054,435.674393,14.507013,68.233386,3.855636,1
7.833361,249.340053,13394.731607,8.34167,393.137872,443.629123,10.983344,76.645734,4.270973,1
6.643734,202.413638,14110.920968,8.75411,340.975559,291.084744,15.954655,64.363793,3.920607,1
6.761414,216.532498,32156.819439,8.723064,343.601104,526.325214,20.314691,60.521593,4.350207,1
7.243482,196.982379,29772.019247,6.497201,333.775777,322.365237,14.154955,50.655001,4.763579,1
7.990658,211.286342,26951.862653,7.510776,333.775777,638.000182,13.942812,69.394418,3.160917,1
7.612517,225.492793,14812.970645,7.982595,356.690174,341.074925,14.994662,55.893916,2.939593,1
6.080993,182.413992,31321.082426,7.624239,318.722751,498.454099,11.398007,81.288382,2.091787,1
7.888425,269.572913,15761.871366,8.173475,333.775777,490.895109,7.025536,78.502271,2.998066,1
6.658834,182.389559,16828.880597,7.071299,355.89689,434.658981,16.618053,69.412284,3.96974,1
7.080795,208.303833,23495.307483,5.80034,274.97528,465.330856,5.980339,57.203089,3.210753,1
7.222998,179.56029,21314.869789,5.864717,333.775777,435.573888,11.87837,79.394008,3.966259,1
7.080795,194.713968,40611.713319,7.423192,290.332286,517.626888,16.340159,72.09361,3.125609,1
6.427721,166.850237,12215.409083,7.696751,376.282617,352.74537,20.130483,66.735044,2.904453,1
5.023381,136.976879,15040.841478,7.588021,409.918702,454.884809,14.245091,71.983851,4.477351,1
7.080795,192.057661,25795.693635,6.116863,318.926564,509.062833,13.939193,84.3154,3.789196,1
8.164,195.212495,27414.899123,5.412481,231.724225,529.681807,12.425426,69.990128,3.673088,1
7.080795,202.882429,17505.852735,7.104366,310.532837,429.289895,17.958968,78.587538,3.537041,1
5.272156,181.732877,19015.468275,9.013016,446.724016,390.012003,11.103467,63.82601,4.063826,1
6.903074,206.922504,17947.988114,7.048017,333.775777,601.985223,11.77511,58.176255,4.473887,1
7.466558,212.81603,16679.673622,5.436264,366.601344,358.909589,6.13421,46.655429,4.991675,1
7.397651,260.083385,26730.635334,8.076995,361.113199,376.482171,17.847827,101.466825,3.078479,1
7.080795,154.925972,30037.221625,5.796571,252.067267,311.750019,13.904652,77.532042,4.113585,1
7.080795,226.31858,18465.265042,6.026304,358.69723,366.926293,10.269402,61.159327,3.406563,1
5.539534,200.711681,21021.418259,9.827309,390.554156,437.341655,14.95589,67.169816,3.75566,1
7.376161,199.17016,17181.008814,6.602452,388.028517,357.372931,16.948292,75.88616,4.010235,1
9.318614,317.338124,24497.873935,7.597452,357.167217,476.510384,12.032377,68.59983,4.642719,1
6.701941,168.745414,17176.878951,6.390966,330.674729,404.930726,10.82784,52.112707,4.17945,1
5.547576,182.644736,27417.998043,9.58609,378.526141,596.650495,11.565242,78.878604,4.448671,1
9.001823,263.514188,15379.912763,6.473674,355.006426,561.687003,22.045457,61.514342,3.976873,1
9.130769,266.744959,9929.19481,6.011964,352.153214,542.806782,10.974207,65.782453,4.771444,1
4.07792,185.852326,9975.601334,10.758464,333.775777,307.877571,9.702581,64.361116,4.789052,1
7.125211,209.746771,16701.565975,7.458741,320.500945,404.704596,18.952797,92.347375,3.908075,1
13.54124,187.606792,13475.912773,6.756055,333.775777,411.264465,15.142667,74.448559,3.529191,0
7.171224,199.160175,13163.031278,5.762522,351.278134,436.602436,19.103152,52.577451,2.209092,0
7.080795,176.386651,26003.163265,7.809251,358.429774,336.142005,14.447961,90.224844,4.410674,0
6.977744,166.845574,18622.444796,6.609706,353.339919,333.968568,12.53456,48.463588,3.530623,0
6.357167,191.135512,14782.804221,6.154448,333.775777,527.932636,18.863094,69.626325,5.222077,0
7.080795,231.305127,15629.762335,7.018067,297.748867,406.340425,11.835535,49.679696,4.464244,0
8.339437,175.596742,12629.853049,6.976314,333.775777,452.33752,17.528839,101.851393,4.133696,0
6.276957,178.263911,25590.680244,6.748702,333.775777,445.186133,8.567973,70.765532,3.214286,0
10.947473,146.883038,27671.5226,7.279137,333.775777,376.903821,17.346504,85.292925,3.112317,0
9.871791,114.37145,27912.908263,8.660269,340.046298,490.451835,8.517762,64.831248,3.652264,0
4.317187,225.514573,27163.457876,6.888136,325.933679,446.341319,17.152945,43.385914,4.078277,0
4.227537,201.447487,13122.329581,6.932558,374.843538,402.660774,22.823293,76.469426,4.479628,0
4.140077,253.599838,40626.84781,7.754533,265.468749,432.511197,19.126695,61.520018,3.167583,0
5.349997,193.808121,31795.625606,8.217819,327.233388,431.47604,11.776193,55.81651,3.838721,0
7.578014,204.730483,19944.573112,6.192653,333.775777,517.483057,13.975826,54.637705,3.503819,0
7.710138,174.350577,31017.239418,8.212234,269.859799,437.514066,9.32004,51.545335,3.898671,0
8.330743,198.9958,28919.811775,7.436214,304.293848,429.2255,14.713229,83.627824,2.408049,0
6.510972,188.882919,20081.745362,6.559698,368.985739,367.934555,14.807579,101.248253,3.962525,0
7.080795,206.036295,8667.720239,6.329952,353.529381,599.546019,21.118938,55.932324,4.128746,0
6.934311,228.194475,13901.644681,6.045503,281.552116,403.215091,17.8119,66.779338,4.210975,0
8.618654,257.595883,11595.354985,6.399933,333.775777,343.740007,15.331166,75.687401,4.141342,0
8.460964,236.831781,13158.848362,5.478276,333.775777,547.91168,16.741463,74.251544,4.728494,0
4.004248,210.486009,32821.850091,6.868438,333.775777,354.439531,14.504058,58.514082,4.445946,0
3.762098,196.024255,45050.002276,8.725582,324.14624,493.226463,8.662215,85.157127,4.986069,0
3.795133,178.43292,27179.40482,6.481019,333.775777,365.491679,12.350038,73.809577,3.185083,0
5.660736,232.749854,16488.017513,6.262933,294.210317,385.748053,18.875941,76.982658,5.016188,0
9.396148,224.753957,25825.387005,7.391299,301.615064,503.793691,16.876927,58.974053,4.606058,0
13.349889,152.776455,18464.900775,6.717973,334.86407,450.846369,17.192564,85.883523,2.531075,0
7.080795,184.688395,20857.908219,6.462946,322.680582,395.785623,18.443786,66.242699,3.7761,0
7.817901,221.089708,13742.145965,6.373737,287.698481,460.599214,12.704827,66.7776,4.622668,0
7.080795,220.892705,7460.24726,4.987537,333.775777,320.354781,13.114365,40.612909,4.266869,0
1.431782,228.130383,12937.246891,6.214773,319.734136,495.379883,12.033344,61.141119,4.948443,0
6.970037,182.888589,32037.605471,7.412765,376.951932,325.7924,14.351241,70.05272,4.275288,0
10.85186,166.741949,12887.193762,7.701932,333.775777,589.628105,15.786497,66.396293,4.345013,0
6.588007,244.94322,23898.974477,6.780936,273.736644,330.91482,9.250628,47.38874,4.216454,0
9.004352,222.489783,16544.827504,6.124095,333.775777,411.193621,16.036914,67.264669,3.527893,0
7.080795,161.578889,11582.462584,6.720473,333.775777,393.837751,11.319488,78.898515,4.374333,0
4.328283,192.166324,30592.548831,7.425894,327.303365,543.716029,11.186939,72.5664,3.708526,0
7.417824,243.304691,320.942611,4.59867,336.097981,361.101769,20.421472,87.052576,3.470812,0
3.26167,190.957355,28760.006844,7.929539,333.775777,424.21281,13.372625,58.095555,4.280669,0
7.080795,239.757929,12318.403886,6.407733,259.122131,481.979934,14.669448,78.801371,4.742163,0
7.928831,231.252216,17444.81445,6.291798,333.775777,389.005678,13.879724,95.553055,3.413573,0
7.97533,165.714242,17182.450359,7.002192,383.266655,363.853579,18.659304,76.032739,3.306129,0
9.504158,195.109243,19946.264665,7.467685,300.679528,382.473005,14.359365,78.306886,4.343041,0
5.158723,119.09384,33892.245951,7.572175,407.476849,325.20257,16.963982,73.224833,4.094605,0
3.923474,227.705538,24200.353482,7.000875,333.775777,292.390155,19.394335,61.785679,4.582982,0
7.080795,193.462207,13852.531903,7.145702,358.956565,480.310714,10.256036,66.396293,3.67324,0
5.849778,229.936687,27435.306561,6.574958,277.033019,596.403216,14.908558,67.644484,3.643816,0
5.89087,184.055762,34920.039348,7.401367,343.791603,281.544452,14.728773,62.601685,4.370777,0
5.963479,223.031638,24435.64208,6.221292,305.947012,284.497026,15.188557,40.142705,3.727813,0
6.10676,211.454489,39430.307823,8.316897,348.776719,389.59144,12.896953,85.358049,3.924967,0
6.898932,209.636422,15422.220893,6.884918,293.56202,396.811214,15.671717,66.597336,3.688456,0
8.091812,200.973301,26472.691803,6.72568,333.775777,432.189931,13.798655,32.667078,4.370031,0
7.611982,190.662804,9138.029344,5.224256,329.580679,577.444713,17.209367,65.333241,6.494749,0
8.886979,180.563966,26062.447217,8.808963,327.22358,378.658922,17.618658,48.475982,4.731195,0
6.532097,163.396241,8240.812709,6.641543,402.836817,601.032982,17.896128,55.022407,4.599324,0
7.83398,203.169408,11174.27476,6.246502,394.890809,338.231122,16.276592,47.931639,4.254477,0
11.563169,174.942862,19359.428816,6.495619,332.44649,366.312672,17.529526,38.4312,5.107236,0
6.782869,196.182558,25366.797905,7.200358,312.426591,435.094574,12.118475,76.347994,5.468591,0
8.288765,211.452744,11234.041471,6.38551,360.843311,525.088611,15.098571,62.999999,3.580523,0
0.975578,221.204114,31145.110739,7.615583,333.677843,439.112765,21.145954,66.396293,2.533996,0
7.52898,225.340986,8129.734919,6.305472,309.231247,379.339293,16.961944,64.265787,3.64441,0
9.764658,119.16401,38781.457422,9.334632,380.230634,512.331846,14.967733,59.193176,3.024571,0
10.191665,211.566904,13630.047308,6.524476,297.049066,468.371387,17.411747,72.720573,3.403423,0
2.925174,260.458041,39233.098839,7.670149,303.402078,403.243735,11.30921,69.238445,3.678588,0
7.080795,200.661925,29513.80486,7.9663,347.541419,476.201585,19.950054,66.396293,3.027946,0
6.657794,205.543176,18844.037031,6.734228,363.39793,555.899038,8.006966,66.934782,3.868926,0
7.00523,219.921997,26597.586447,7.351021,333.583723,379.598806,13.284691,98.965389,3.589866,0
7.080795,178.080442,35044.37128,7.760027,357.082818,381.645131,17.551382,71.111182,3.761633,0
6.227842,183.309048,38976.035214,8.247333,333.775777,531.630721,15.847849,46.643589,4.599573,0
6.39276,216.675543,19323.67725,5.906405,283.205517,358.174494,14.982646,41.586606,4.421528,0
6.088022,162.278357,23567.132875,7.698582,372.835081,387.970635,13.663607,75.266064,4.173083,0
3.961389,173.029641,24028.405406,8.005631,391.0023,444.794277,19.94528,59.834541,4.092966,0
4.27516,229.443109,26098.637956,6.525203,281.896827,508.792098,16.133203,66.654193,3.732856,0
7.301903,224.467802,23565.178404,7.554047,280.129485,487.333321,8.524864,68.940193,3.430699,0
10.893485,177.734357,25702.518673,7.65983,312.399335,383.199585,17.472109,42.81457,3.63497,0
6.798097,198.116381,35883.78011,7.051814,333.775777,470.493545,10.888639,58.473804,3.571623,0
11.496702,195.989486,14158.157283,7.235224,311.965093,357.522599,19.321722,82.350013,3.132253,0
5.808239,195.514516,43110.503721,7.368819,281.918918,325.83136,15.047019,51.294792,4.819064,0
7.080795,183.521107,20461.25271,7.333212,333.119476,356.369022,20.179029,67.019903,4.886634,0
5.67933,182.145266,17909.115626,7.538592,333.775777,546.895144,15.219355,81.555597,3.292071,0
7.783306,196.815952,24789.354734,6.548497,331.036776,372.764982,12.066182,14.343161,5.04562,0
6.316471,187.030116,32651.802764,8.149178,314.208346,463.341217,14.243421,60.26918,4.902735,0
8.605374,217.043128,22970.957279,7.409957,333.775777,264.699473,16.692946,46.501658,3.665323,0
7.080795,162.97856,26281.297812,8.523671,369.862672,403.600024,12.388244,66.396293,5.185642,0
7.057553,177.674305,13129.149842,7.312352,367.328533,393.740497,16.35632,53.841797,4.486403,0
4.850104,186.676176,32808.307503,7.496263,293.757927,392.700493,10.630769,85.157983,3.885386,0
7.080795,202.614372,31606.348826,6.464581,333.775777,380.974672,13.460449,67.059118,4.775121,0
4.560917,165.773119,22939.144377,7.988232,352.793528,323.783277,13.56415,79.316585,4.123622,0
9.130828,209.743044,11643.663476,6.594682,326.394577,509.661782,11.274065,67.528288,3.074134,0
7.080795,185.121996,16110.183643,6.444435,355.567366,386.508599,11.215654,38.041516,2.840893,0
4.233559,194.975044,22185.763963,7.116809,377.846903,355.817097,14.859198,62.016383,3.515672,0
5.57102,189.728229,26138.09761,8.832762,361.855549,434.051253,16.166931,88.727373,3.931307,0
7.080795,155.317562,22911.614486,8.315816,409.586373,424.779664,16.293229,84.892418,4.825702,0
8.527142,217.394778,3413.081633,5.670027,337.631073,615.611167,14.926751,82.590152,2.649424,0
4.570854,194.967945,44260.191179,8.030452,333.775777,460.779058,17.942185,79.008272,4.484186,0
8.903734,194.216275,13319.495705,5.566896,323.424362,317.349244,17.130158,61.428791,4.36517,0
9.459931,222.894659,14450.175747,6.790914,293.746321,433.145005,9.069161,67.906813,3.32289,0
6.040282,139.770872,20472.874588,6.810978,357.593277,488.27493,15.882252,53.279042,5.76158,0
7.080795,171.166646,20412.283908,6.896318,367.189514,354.270345,16.403175,63.257907,3.978933,0
4.663492,170.95183,41452.625574,8.725765,362.415419,378.149,16.274051,60.618754,3.742293,0
5.726336,191.75229,35899.280309,8.066654,378.774605,307.987551,12.568721,60.192351,3.912289,0
10.933111,162.424918,18846.634913,7.085261,333.775777,593.725764,14.977233,60.69058,3.894989,0
4.281522,188.783577,22330.466787,6.957676,325.160819,306.692504,16.274857,82.595223,4.371167,0
7.948488,197.594542,23602.187832,7.098458,333.775777,394.767989,14.876694,78.974227,3.891124,0
6.825647,176.841063,12838.914373,5.792425,393.798648,447.289115,15.821346,104.230949,2.80448,0
7.285371,169.14919,17375.970745,9.404687,394.092424,373.190282,15.26051,80.795985,3.694482,0
5.984941,180.776562,33244.555597,8.086517,364.706394,392.97102,20.471817,50.141602,3.488675,0
5.368988,250.660916,15973.686891,6.416298,277.151938,334.819954,15.684362,44.040382,3.737883,0
4.01659,255.616569,28612.266107,7.340595,290.690661,442.385118,9.305733,71.342132,4.417134,0
7.080795,254.125389,9959.135015,4.008584,333.775777,364.806273,11.316645,59.353221,3.170543,0
7.719001,196.007518,13939.294022,6.935551,345.653662,423.203533,16.836786,89.338649,2.884819,0
5.983731,221.557383,18438.823395,6.654372,316.778999,443.543934,19.136379,53.661823,3.849383,0
7.732602,166.986825,18445.743458,7.172851,333.775777,453.385632,13.111402,77.232127,3.854994,0
8.847881,190.700853,11705.072282,6.663397,380.592491,386.464151,16.319105,85.693649,4.143451,0
7.561833,170.175157,23254.009619,7.583327,328.70263,397.587974,16.140317,66.746781,4.03215,0
8.75856,174.728686,25564.767564,8.070255,333.775777,371.915171,14.943699,47.185566,4.444376,0
7.080795,188.445469,28791.614416,8.040356,382.009477,422.234861,10.57569,63.235365,3.228379,0
3.832917,218.72384,23535.028901,6.475402,352.505898,421.183478,19.273561,58.903698,4.76866,0
3.730128,230.299455,16892.895662,6.997172,323.520471,456.905704,10.342146,47.095506,4.943032,0
5.801571,201.892474,15327.879723,6.860647,328.932585,281.085032,19.812484,55.397564,4.425378,0
3.678432,187.496704,23103.410444,7.145145,333.775777,350.54048,10.140068,67.45618,4.480109,0
5.143587,180.382619,32740.564661,7.988893,328.43743,389.242148,13.943183,66.396293,3.096164,0
6.628256,198.865743,15911.357509,7.517906,342.015924,437.918625,15.005742,38.845958,4.464457,0
7.080795,196.083556,18592.08392,7.245436,321.814033,552.879034,15.664786,81.080826,4.762872,0
3.102076,198.488651,45148.808118,7.82165,324.64408,427.216764,15.530123,54.574254,4.248075,0
4.497585,193.936515,27768.38287,6.906348,330.4307,556.032922,22.618411,81.265816,4.965739,0
5.584124,203.756426,29999.987005,7.213329,310.660284,366.558131,14.183025,65.881271,3.852732,0
7.080795,205.065879,16034.453699,7.136008,397.469678,459.298378,19.637893,70.059835,4.858165,0
10.331273,166.459779,15824.822709,6.396364,361.156178,376.102104,13.844331,52.057381,2.673441,0
9.130796,200.032348,28273.603243,7.497526,333.775777,453.873571,12.860514,64.178494,3.025707,0
4.618851,199.318913,27174.687638,7.218588,371.056861,312.281382,14.040787,66.396293,4.322116,0
6.931244,207.588953,24359.470414,7.222004,313.819713,477.062975,16.495092,75.041914,4.897957,0
5.602159,264.573515,29860.275777,7.014528,333.775777,530.20476,16.03018,29.850948,4.067049,0
7.520519,228.562611,22160.819662,7.473799,333.775777,545.14665,16.460634,90.944944,4.227766,0
5.58247,172.331584,23512.837957,8.011316,364.483422,452.080765,16.472045,95.045658,4.048113,0
7.99275,193.609138,14610.412832,7.218904,332.468755,468.602998,10.877062,67.181341,4.062907,0
8.210358,210.222112,22619.239931,7.567988,333.775777,361.614391,14.65019,70.368049,3.716664,0
9.901931,206.746469,13180.677801,5.878835,333.775777,426.534807,14.321874,75.408754,4.22695,0
7.080795,191.258655,14064.899155,7.036949,361.154951,399.838662,10.845264,35.582992,3.732339,0
9.405875,149.308297,27180.057189,7.867309,333.775777,398.806246,17.364706,57.962637,4.033733,0
9.587895,195.837105,11351.861856,6.267476,366.428928,323.794862,13.068242,37.35308,4.666917,0
4.633203,208.908036,29307.128945,6.125585,304.031776,456.214828,10.817158,111.11531,4.751859,0
6.901111,154.474092,21103.303188,7.9287,376.001071,450.252974,14.643306,71.321372,3.616498,0
7.795558,136.090677,26484.515316,7.55532,426.500022,471.413356,14.544948,51.491197,3.629252,0
7.080795,215.431919,19909.938849,6.902628,299.086418,371.482911,10.766349,85.267182,4.592538,0
0,214.846144,49456.587108,7.897539,333.775777,583.448849,7.702328,77.712891,4.92884,0
8.398261,177.347214,18003.257285,7.390924,333.775777,498.365377,10.351298,55.71566,2.627862,0
6.25515,153.640493,24316.16334,8.211595,367.344534,295.042492,12.503661,91.270792,3.146483,0
11.496859,186.125296,12253.303389,8.06698,325.409341,260.531758,9.674083,68.073928,5.005193,0
7.080795,200.717207,40581.486801,6.759981,263.876471,283.172008,14.915325,58.879467,4.008443,0
9.347345,201.632836,13749.596037,7.333742,322.044667,512.446305,12.434716,43.827119,3.615151,0
11.62114,203.730368,15102.237428,7.816415,333.775777,447.045213,21.632385,61.801804,3.472067,0
10.337671,163.276225,21820.295875,7.899521,356.179637,561.206238,14.116324,56.193061,5.063109,0
7.080795,196.051741,21919.470163,6.730277,359.701352,401.731338,14.219303,77.605726,3.954964,0
5.287983,245.023461,27733.713099,7.135063,238.844004,464.07485,13.452179,55.642363,3.311034,0
7.617524,179.596189,30308.231181,6.952617,329.422414,355.425532,13.40076,66.223591,3.698317,0
7.149125,202.582542,23158.389096,6.067812,302.002743,301.98424,17.622595,42.292766,3.787033,0
8.65139,154.546949,15901.285161,6.51098,419.216305,444.843584,14.656725,49.515175,3.26641,0
5.290004,174.738423,28697.004827,8.60679,317.016465,480.680392,13.748302,52.475868,3.532322,0
5.369584,170.835192,27199.641993,8.065886,376.055637,401.833036,14.081981,81.740225,3.357484,0
8.747272,198.712228,30348.243651,7.324498,333.775777,333.639282,13.866073,94.728129,4.764708,0
8.040392,200.637576,12999.144804,6.696356,356.870041,394.017732,11.100407,43.62591,3.017796,0
8.550428,206.522566,10453.087323,6.482009,326.125482,347.824328,13.997466,42.290535,4.90387,0
7.739326,207.764326,30412.372331,7.813967,289.413636,273.697139,19.113382,52.281104,3.645785,0
7.104595,201.627117,18093.972162,8.474123,361.629187,348.732937,8.582461,49.382684,4.763058,0
6.988206,144.209535,33357.515863,6.771945,333.775777,409.006788,17.880332,54.111785,1.899683,0
7.869782,184.066169,18608.656297,7.411035,333.775777,364.577603,17.580726,0.738,4.219576,0
8.859696,194.556482,20231.517645,6.519659,332.349949,476.23171,17.889569,52.909071,4.575331,0
7.397544,184.840925,19797.108543,8.422,387.190304,428.414784,13.143444,62.337976,3.947138,0
5.174896,205.519019,12871.55122,7.099599,365.684401,501.19395,20.558672,77.123457,3.445028,0
7.080795,184.218245,32328.538264,8.381231,333.775777,452.890297,12.167905,79.937846,5.037492,0
5.470982,191.813046,36435.793514,7.369649,323.120036,383.871055,15.881382,52.765049,3.84402,0
6.711815,232.206428,23936.275332,6.619088,333.775777,463.510297,13.911879,78.190897,3.413647,0
4.933106,162.184382,27771.080134,7.757702,317.935411,493.304069,14.261743,77.142104,1.45,0
6.260892,188.061805,33809.224701,8.141301,341.498044,522.301232,14.467501,47.050155,4.397386,0
7.693555,224.393037,21856.145213,7.04144,275.27197,404.823921,12.848965,63.154905,2.750696,0
5.622807,194.463239,16119.34019,6.907987,336.648207,408.459081,16.364724,76.631186,3.992957,0
6.174884,193.02796,23006.242223,8.098312,340.253354,297.112621,13.475158,78.325227,3.623298,0
5.039407,194.40417,19336.608073,7.194765,339.232126,515.807182,10.728669,61.129517,3.126956,0
7.756939,219.576215,16478.071433,6.950541,333.775777,362.74922,13.054672,82.101,3.870339,0
9.809996,139.118703,16819.423179,7.791982,361.028039,438.179247,10.951138,34.537409,5.538201,0
8.479593,200.765679,14901.808144,7.379506,333.775777,485.093167,16.806347,53.13417,4.221266,0
8.862868,181.665398,17465.095886,7.131704,356.48189,529.086003,15.430418,60.606603,5.758676,0
6.155739,166.29292,30284.494869,8.995896,333.775777,351.626734,17.404754,75.336207,3.685976,0
7.287286,219.695123,18085.502818,6.010569,277.329713,406.564794,16.136766,53.677449,3.504265,0
9.065894,164.674803,20260.403692,7.588175,304.567537,408.90127,10.1785,84.723107,4.299503,0
9.314522,203.34165,23087.217659,6.437071,297.566764,373.044172,16.402773,79.163456,3.09294,0
9.759938,182.7508,19945.368306,6.719257,333.775777,343.596958,19.863354,85.702564,5.381746,0
7.985406,200.134697,17583.080335,6.771729,296.569823,377.584203,10.289288,66.890747,4.752452,0
8.108351,202.510194,26730.192613,8.395129,323.951805,368.454991,17.337091,66.396293,4.753358,0
8.243091,214.53299,29461.02377,8.31513,333.775777,514.490012,16.301765,90.075909,3.550717,0
10.28938,162.780252,18869.21209,6.906497,344.18761,585.679589,18.857141,74.293779,3.500167,0
3.989032,216.076138,40175.206091,7.487423,309.800796,399.047181,11.186739,86.957464,4.409414,0
7.080795,209.531697,44982.734155,8.898024,333.775777,349.385235,15.653299,66.396293,3.832479,0
8.519639,190.994957,14578.961311,6.602693,333.775777,498.533578,11.316601,57.181588,3.427251,0
7.080795,169.547411,20004.733628,6.437675,333.775777,349.865036,11.332518,41.703766,3.882004,0
7.080795,223.376684,20992.281677,7.760408,340.365755,332.487993,18.085385,61.016455,4.647782,0
4.495358,234.191916,14080.833709,6.340682,296.31422,382.408074,17.353545,59.004349,4.9629,0
7.080795,193.09126,17777.100086,6.087949,333.775777,543.114953,10.717588,66.396293,3.878664,0
5.620533,226.987836,27852.097439,6.521471,309.228091,414.061545,16.932911,78.439251,3.439476,0
8.552994,199.599784,10452.724414,6.587933,333.775777,316.257513,23.042376,45.253715,3.108674,0
7.080795,216.237975,20886.786563,7.32637,303.498672,269.817539,15.25278,104.682553,3.860348,0
10.209956,148.379235,18413.09682,7.407967,390.619013,410.568172,15.103624,89.178485,4.112598,0
7.080795,205.233634,21829.273148,6.677057,331.67465,338.567758,15.566655,56.608679,2.545631,0
6.588208,179.699151,35263.612399,7.445343,333.775777,527.449342,16.149315,81.50347,3.972256,0
8.558389,198.888868,8535.402956,4.796666,321.403477,453.571163,14.351624,74.326204,3.946228,0
8.426906,159.690251,19576.530381,7.664375,344.14513,390.6909,17.747037,53.631504,4.244514,0
7.207539,174.805168,15796.399698,6.954041,333.775777,555.596211,14.171164,60.53127,4.295189,0
10.22769,225.919118,9546.129215,5.899676,313.987343,372.532752,15.284291,61.258046,4.78633,0
11.390543,145.341937,16175.221944,6.613865,333.775777,553.488923,12.091189,69.736231,2.277359,0
7.080795,199.383091,5576.628297,4.998844,341.088342,388.249299,10.745154,50.747474,3.216414,0
6.580043,220.575466,27668.485719,6.198069,333.775777,474.627691,11.470226,53.508043,4.756446,0
10.817831,141.488391,23989.990151,7.962066,389.392897,361.632055,14.908725,57.164556,3.590841,0
5.093675,251.31378,30245.956975,6.71883,267.026093,271.630738,14.882428,70.778408,4.552571,0
5.264284,142.534126,25556.053128,6.600787,416.262799,443.759231,7.491362,72.879848,5.10024,0
7.971299,151.03293,29827.793969,7.662154,405.829894,376.912212,19.382739,78.160133,2.43914,0
8.350351,239.816005,17177.788783,6.108947,272.844715,294.876056,10.603467,62.852749,3.507228,0
7.080795,184.614848,22289.727086,7.167405,392.462199,409.490999,12.215588,63.904256,3.351767,0
4.032061,200.067973,14720.544829,6.482679,333.775777,519.21337,16.600777,77.29394,4.814235,0
2.128531,192.696422,24905.284521,7.75777,383.519892,473.550065,14.286493,56.34783,3.842109,0
9.842056,217.896772,6785.145303,6.028898,333.073546,432.332406,12.365538,45.822004,4.179198,0
7.664628,150.66721,33918.040823,8.746295,406.476119,436.335622,15.21693,66.396293,3.487407,0
7.080795,233.993172,27197.302441,7.297453,301.848786,490.766191,16.02278,58.524667,3.198344,0
7.26032,194.247742,8127.071254,6.674032,394.555835,312.349017,16.005022,65.02396,4.282315,0
9.537879,200.557507,20044.206252,7.07869,303.919341,335.554803,16.636174,71.309022,3.024557,0
1.985383,216.480025,23039.328505,6.769268,344.014256,341.078379,11.498237,78.733441,3.923093,0
7.248991,184.071034,33123.44298,7.186173,322.365661,345.356576,15.164134,68.847544,4.25598,0
6.968209,178.217311,39995.186272,8.930689,337.06495,393.676958,14.243374,75.375743,3.632644,0
6.150553,212.819377,15017.747281,5.544436,319.494952,279.447066,12.850506,75.028793,4.810537,0
6.300756,179.452792,25668.198954,8.931531,341.493024,458.835406,14.062956,66.396293,5.708112,0
6.9208,218.098612,13477.381586,5.659837,333.775777,302.412374,11.054578,61.933779,4.915733,0
6.48189,179.919711,34698.62116,8.538492,338.012323,504.397152,16.409364,59.954815,5.002361,0
7.080795,208.931458,16429.907902,5.873277,310.985634,364.919492,17.801565,107.306343,4.454964,0
7.309596,193.472596,19343.149511,7.664061,306.685455,426.561928,12.844366,111.595448,4.048202,0
5.967274,187.085084,30846.585474,7.281106,339.063715,323.962695,12.651854,72.27359,3.914544,0
8.63127,164.371169,14880.651798,7.278263,350.951581,444.108112,16.857459,58.177867,3.640944,0
9.172625,165.687548,11319.106232,6.618853,372.554713,420.42911,13.353259,72.974051,3.686395,0
7.080795,156.773181,23084.066585,7.269795,334.9561,378.253869,19.247141,81.571554,5.564902,0
3.337629,216.257087,42310.827498,8.130663,333.775777,352.264074,14.029673,52.760961,3.300192,0
11.449739,186.652648,12355.344107,7.065576,321.831513,503.96411,16.282371,77.152173,5.166903,0
6.283679,205.376624,19905.436548,7.078345,284.206021,471.904032,18.02716,64.362608,4.480771,0
7.080795,192.407876,25460.300793,8.231475,333.775777,465.883955,16.657294,58.360125,3.543696,0
8.761768,212.426952,14168.924869,6.385733,333.775777,488.599547,12.601801,60.237073,4.673548,0
6.616731,195.096968,34277.7604,7.632639,333.775777,417.46508,13.432557,47.945936,3.622379,0
7.734569,230.919506,21776.594455,6.908591,333.775777,395.114961,15.033557,92.697369,3.821456,0
6.971577,185.906938,27959.987873,7.21451,349.743879,414.067354,19.882917,36.179003,3.226349,0
4.709187,179.141018,22291.418577,6.774276,407.417977,371.264843,18.186801,86.528627,3.860084,0
5.230003,176.714023,27971.891806,7.597981,413.914001,440.355374,14.423614,72.83737,3.045612,0
5.274185,227.340186,17605.535759,6.32698,358.589903,489.434591,11.199191,66.396293,4.364426,1
8.433443,224.856089,12833.461241,6.179496,327.533276,411.849949,17.400426,72.917305,3.824734,1
6.847863,234.942203,24456.174888,5.596241,334.873046,337.573151,9.515292,77.2973,4.921196,1
7.263545,160.443065,16129.706923,8.091014,328.447174,478.515081,12.814836,43.592301,3.95053,1
6.733267,191.305627,6193.330562,7.739771,333.775777,424.666822,20.811342,98.367825,3.765694,1
7.080795,258.447265,25498.32954,4.922167,341.03958,425.797019,18.993663,67.400673,3.691947,1
7.080795,232.943238,8729.096217,5.885992,333.775777,400.517661,8.772738,69.723912,3.399726,1
7.777665,233.761579,16780.116147,6.123297,323.538055,520.285094,17.794741,60.343891,4.683335,1
6.103731,184.328693,17977.525649,7.275531,333.775777,334.949739,7.655381,59.000666,3.383049,1
6.665774,155.709679,30610.0479,8.172548,337.173767,425.691956,15.101533,79.780467,4.903553,1
7.080795,215.940695,10171.710103,6.622284,333.775777,378.317533,13.190818,82.785352,3.757799,1
4.959853,215.854869,9887.830755,6.954231,379.504731,527.479694,14.326638,52.388849,3.455045,1
6.397905,249.969243,22057.051786,4.892717,375.494474,334.26988,14.150363,97.030457,3.958543,1
8.140344,153.74817,50793.898917,7.843498,306.21895,423.455906,14.322019,65.07661,4.362792,1
6.850625,232.931196,15338.061641,6.142618,333.775777,438.347327,18.148595,81.55161,2.593834,1
6.714777,185.909303,34558.402667,6.554858,360.508237,303.968203,10.22647,50.214011,4.684853,1
4.337119,207.361907,34355.618427,6.809153,374.072772,530.069602,12.622032,44.750359,4.401635,1
8.433291,161.195283,15904.243359,8.423766,300.119,479.995905,15.303755,71.478501,3.631543,1
7.274213,197.660949,27198.432591,7.79784,304.849979,300.01991,14.6116,66.608891,4.710256,1
6.579185,186.986869,16700.034873,6.454925,379.040709,405.276912,14.996029,62.152315,3.813556,1
7.080795,240.611517,20006.229109,4.907299,379.758594,327.305558,13.285838,83.184414,3.453126,1
8.651023,188.711637,13207.860966,6.834673,335.244783,399.691068,10.689365,43.953313,3.644279,1
8.357613,163.098254,34989.047081,7.696943,317.30168,404.492614,8.271882,67.598158,4.366242,1
7.080795,242.827588,29298.074262,5.85384,340.348645,463.115174,5.42665,66.396293,3.522586,1
6.658742,216.564702,25172.585759,6.785521,330.517558,620.448963,19.095091,82.244095,3.400988,1
10.503787,125.975185,38605.33153,8.710553,333.775777,674.443476,9.71422,51.697894,5.370458,1
6.332387,186.838028,23073.063966,8.082004,326.980476,233.907965,9.641442,60.940028,5.159002,1
7.080795,214.593685,22038.511621,6.199628,294.241392,332.472542,18.469528,46.046287,4.238535,1
6.730428,183.915296,9258.767076,8.005173,345.071954,320.667865,12.066808,56.437485,3.961942,1
8.297783,183.614121,20316.426685,7.108809,322.095849,295.653957,13.503197,62.230134,4.239221,1
6.259268,130.374272,9734.677103,10.282329,320.359766,399.350709,10.846787,43.420195,3.932142,1
8.076126,132.670305,10816.273367,9.513269,314.970495,479.758924,14.685851,72.638303,4.291355,1
5.731042,223.704966,1351.906979,6.496723,380.514079,620.304639,14.672927,62.02363,3.675807,1
6.563357,241.286323,56320.586979,5.365558,333.775777,415.817219,11.651929,70.637648,5.29295,1
5.303764,231.018784,6675.682245,6.100064,388.802045,465.830539,14.531245,77.66802,4.024521,1
7.647872,160.774353,29000.589712,7.217409,333.775777,438.800961,13.182501,67.099969,3.078673,1
7.080795,139.169744,33784.82623,9.64052,275.33196,499.428133,13.664485,70.368364,4.678745,1
7.951451,185.421724,6108.795734,7.117859,344.795681,283.87728,18.904399,85.799759,3.886882,1
8.832142,176.808661,12171.024549,7.475336,321.257628,395.387337,12.481552,65.867189,3.914512,1
8.25083,184.385124,21616.633855,7.166734,305.177426,412.947116,13.791337,71.799129,2.604708,1
5.860574,240.887144,18321.992318,6.046385,351.049793,491.875418,8.997226,44.61566,4.277241,1
8.182103,186.670496,19642.394421,7.715136,333.775777,370.321395,11.521597,55.493882,4.605238,1
7.889579,153.569738,41210.666981,8.457639,294.260076,354.482689,11.292575,67.354769,3.22736,1
8.713483,169.578526,23838.817261,8.162688,333.775777,478.983019,14.520904,63.94527,2.922195,1
6.185925,236.034783,1198.943699,6.140033,374.095388,436.236198,11.093811,99.775078,4.090264,1
9.079715,222.042631,53735.899194,6.894915,254.040977,382.896167,12.704887,101.615346,4.551724,1
8.379513,164.168166,24409.096795,8.199017,333.775777,430.238921,19.349982,63.105234,3.749818,1
9.221956,151.454831,26502.595774,8.097194,294.192754,541.601438,13.951753,39.572407,4.294252,1
9.370697,157.719364,15106.308647,7.762862,316.391974,424.915677,15.645998,108.213981,4.380797,1
7.487573,149.768744,28837.330401,8.560974,333.775777,531.180998,9.536537,57.949476,1.801327,1
6.028349,225.674872,12145.544596,6.12627,365.961711,503.112147,15.651888,73.400578,3.142084,1
6.283319,228.524839,11601.642382,6.322219,333.775777,414.784442,11.679676,88.34594,4.15399,1
5.666446,142.147811,24383.741538,9.989551,320.264283,511.954001,23.604298,77.030487,3.836823,1
6.985304,219.58644,16470.952192,6.445513,339.053992,492.903021,15.804449,70.600683,3.081799,1
7.273368,175.015083,14206.357323,7.839067,337.644573,322.490689,18.107842,58.181707,4.196421,1
7.44966,193.042081,32251.359648,6.086599,337.135046,572.806143,18.060298,57.401337,4.370404,1
7.61812,202.715501,44539.738323,5.816216,338.07007,459.07842,13.351652,73.601918,3.7697,1
6.698154,198.286268,34675.862845,6.263602,360.232834,430.935009,12.176678,66.396293,3.75818,1
7.027297,185.838671,31151.615179,7.625545,327.221734,398.705017,19.461464,80.693568,3.392666,1
8.610963,125.15877,32079.774815,9.844921,264.052839,342.205252,12.947376,53.950269,4.6144,1
7.423586,180.453871,34451.984214,7.930651,303.790134,429.859999,7.665923,66.700476,3.365397,1
5.456681,219.519886,20967.84061,6.826782,355.082878,312.01984,14.029285,57.852507,3.799473,1
9.612899,94.908977,16598.577511,9.143046,311.296157,535.698701,12.312032,67.426955,4.01641,1
8.24692,119.028215,7747.577263,9.124225,333.775777,579.247674,13.001229,72.803734,4.09662,1
6.641174,191.916899,10220.712359,6.675081,380.36359,421.417352,12.243252,65.179927,3.154701,1
6.646067,197.222066,16863.438725,6.793929,333.775777,505.295922,16.712367,45.660418,3.053983,1
7.164478,213.002441,32751.928963,6.292148,333.775777,490.933121,12.683767,58.252613,4.998203,1
8.285072,151.573778,14402.726696,9.05008,303.081838,322.521815,13.652653,114.034946,4.274661,1
6.110022,234.800957,16663.539074,5.984536,348.055211,437.892115,10.059523,66.396293,2.81778,1
8.316664,110.903598,24814.485805,9.489566,333.775777,480.472306,14.271247,77.854499,2.6958,1
7.080795,184.993698,14875.956508,7.49821,367.326586,435.603001,19.839907,75.199482,1.922377,1
9.004681,173.73933,28311.291842,8.475083,333.775777,531.521444,12.838813,37.764798,3.775015,1
6.886513,211.454417,35018.3256,6.067597,333.775777,549.997058,8.445127,27.663174,3.599756,1
9.293622,193.061723,50166.533323,6.301884,333.775777,365.439202,14.225917,98.625457,3.661882,1
6.985192,133.432132,21944.64183,8.577655,341.239907,536.277153,16.176686,91.708813,4.246202,1
5.094164,223.167125,22957.653403,6.977421,350.101275,476.62455,13.034638,78.075923,4.710936,1
6.150034,188.413055,8406.723244,7.744714,358.591738,449.358812,13.220295,52.956632,3.444442,1
6.189699,224.432949,15229.702869,5.879184,366.501118,649.805765,10.257515,71.780949,3.027371,1
7.497988,185.810281,30927.394282,7.579377,333.775777,476.387149,15.124286,72.928421,5.738991,1
6.96528,162.69945,24312.037798,9.129755,307.759211,490.815521,15.512059,102.695868,3.969318,1
5.41212,272.514685,2835.303165,5.77801,333.775777,347.804416,15.307746,66.661479,5.680347,1
7.503086,186.713329,32000.178936,7.641776,315.974147,473.531611,12.049131,43.280476,4.305514,1
7.080795,209.149989,27030.754999,6.09375,350.060347,407.910645,11.046946,81.757851,3.993126,1
8.581043,153.709092,19970.434294,7.661687,312.885127,520.808359,14.781584,74.127793,2.883145,1
5.530055,207.99822,38918.778073,6.543134,360.070715,427.664302,18.81308,61.214979,3.327472,1
8.743959,197.749325,40843.616551,6.368862,310.6772,326.253326,12.503203,66.421884,4.118973,1
9.052384,120.021726,22203.487259,9.36834,285.233528,372.275232,14.538446,64.132426,4.259719,1
8.077261,125.302719,23931.282833,8.773162,317.693331,398.328789,15.279583,62.668356,4.279871,1
6.682097,228.303186,7705.298605,5.94735,363.536984,254.392306,13.14044,64.783954,3.449829,1
4.73132,230.938693,15517.391122,6.614705,333.775777,384.80673,16.620933,64.03826,5.457892,1
9.24142,127.918826,39566.754352,8.860818,281.99564,487.339169,9.534499,65.516668,4.718851,1
5.628313,192.340744,22856.742901,7.764693,343.039509,439.054759,15.199906,50.229944,4.061645,1
4.857803,222.39999,15668.273618,7.90079,320.394529,417.804063,15.530563,84.228774,3.966571,1
8.430472,195.717293,35254.026047,6.703539,314.727835,282.599918,12.269178,46.48795,3.25392,1
6.817608,219.337429,27548.614177,6.298121,340.937614,530.710026,19.486791,68.568791,3.048292,1
5.913755,175.326062,12044.624691,8.368785,347.880372,380.967166,12.530827,65.194053,4.023776,1
7.080795,257.235433,28149.052685,5.994556,336.062446,551.85009,14.252898,68.403833,2.67404,1
5.500277,263.68316,19911.2249,4.755312,366.942743,435.865696,12.761184,51.439894,5.147536,1
5.608623,271.882219,43680.222521,4.157335,366.866533,450.896053,16.442753,61.249762,3.777508,1
5.609235,216.122673,14825.934502,7.001788,355.211678,330.092674,9.779518,41.249977,3.224676,1
7.080795,98.367915,28415.575832,10.55895,296.843208,505.240269,12.882614,85.329955,4.119087,1
5.859822,287.97554,3640.73432,4.072626,391.697385,447.121861,6.363175,49.155291,3.426634,1
6.417716,209.702425,31974.481631,7.263425,321.382124,289.450118,11.369071,66.396293,4.210327,1
6.170526,193.335517,16206.219671,7.123966,333.775777,528.096091,20.532277,75.067706,3.652207,1
4.034063,303.702627,33219.074545,4.425559,333.775777,494.320907,13.41523,72.012642,5.024742,1
4.979469,240.813475,24167.842882,5.59383,333.775777,398.028961,6.091227,62.419529,3.439022,1
8.097454,218.992436,18112.284447,6.196947,333.775777,376.569803,17.746264,59.909941,4.279082,1
7.080795,198.2187,31081.735264,7.419106,333.775777,517.925946,11.711419,85.428785,3.345543,1
8.468741,132.456484,21038.442613,8.001378,345.000735,360.575586,10.74296,64.508934,2.876996,1
7.870853,210.627825,51731.820553,6.190963,333.775777,533.291262,15.029899,84.335058,4.221614,1
7.679595,200.072928,32000.843911,7.633725,290.740337,583.608398,16.844509,39.367056,3.297525,1
7.226593,207.832229,22097.413223,5.862717,354.708382,353.654046,10.401056,66.86414,4.337117,1
7.080795,203.204659,10643.186771,6.828936,333.775777,384.597711,16.011328,72.911573,3.06591,1
8.659113,114.807578,23514.636647,8.735315,333.027205,318.640679,16.559076,52.866373,2.895774,1
7.080795,225.754109,28194.452646,5.89283,366.201583,418.272901,17.306832,103.912548,3.855895,1
6.360196,198.911449,13742.139487,7.441487,338.409576,423.625649,11.9159,57.713149,2.713248,1
10.485604,136.577381,32872.380566,8.399435,276.921835,416.188546,18.884625,60.078413,4.66924,1
6.603417,190.837308,19468.790095,6.375632,380.731901,456.31546,5.934588,83.559326,4.270817,1
5.713323,196.245706,11356.580481,8.027819,347.587583,300.125125,18.430084,44.860351,4.571128,1
4.767472,256.449917,48007.868134,5.77318,333.775777,590.42955,16.541561,44.938586,3.893378,1
9.609834,227.366949,22690.045871,5.38544,314.317481,394.731564,16.988356,75.339694,4.308358,1
9.186453,169.119805,27055.696261,7.44248,333.775777,498.635322,10.247444,50.40116,3.453861,1
9.96069,169.925248,15835.122818,7.143907,301.777253,388.897159,13.563992,71.593866,3.434538,1
6.102307,205.999038,23406.85916,8.061864,333.775777,380.305005,15.492397,69.110815,4.280766,1
6.792655,241.724453,9094.3133,6.435809,338.521176,361.107537,14.502464,45.428097,1.917754,1
5.91054,241.140746,25721.833866,4.806759,385.887468,462.61253,14.316821,60.590359,4.007508,1
6.12581,241.443535,8810.89581,5.740321,369.022715,367.967943,16.816507,47.661727,4.953058,1
5.836105,277.065713,17711.487774,3.458192,400.167599,456.732862,17.552294,72.059866,3.738991,1
7.080795,188.536608,24711.414927,7.12952,333.775777,555.548534,16.959269,56.038702,4.331691,1
10.667364,173.381945,28912.202201,7.071294,276.634391,286.063394,17.685651,55.147364,4.135569,1
8.628301,185.926723,31548.006464,7.079462,333.775777,342.355697,18.248368,62.188687,5.100858,1
6.260111,211.594112,18577.623969,7.154891,340.792574,357.098395,7.99221,82.365378,5.403615,1
10.808157,198.596751,29614.34879,5.782418,304.622061,383.26941,14.90282,47.896406,4.362542,1
7.371914,148.193698,42059.380417,7.96671,324.546262,544.848432,17.166504,62.677756,4.338957,1
4.825591,234.783904,11142.392632,6.442769,370.416831,370.188948,13.046355,46.315992,3.463097,1
4.868827,258.678959,13400.385532,4.88091,333.775777,328.764529,17.35208,55.968217,3.2556,1
7.395451,190.477892,22561.508311,8.310195,294.030395,413.910293,13.301374,63.410178,4.990236,1
8.862113,131.635177,17433.601853,7.639573,340.133165,399.462844,16.712206,53.594104,4.955082,1
6.008974,225.080234,5100.094173,7.452236,336.119,325.134492,11.079952,36.341012,4.01234,1
7.607224,160.565253,39184.84672,7.826411,312.056066,503.158079,13.366994,62.022308,3.525027,1
6.683368,272.111698,18989.316768,5.336202,336.5551,307.725009,20.178716,75.40226,5.208061,1
6.638411,180.826667,9772.504814,8.295983,333.775777,401.111143,12.601517,61.051889,5.164057,1
9.271355,181.259617,16540.979048,7.022499,309.238865,487.692788,13.228441,66.396293,4.333953,1
7.080795,134.736856,9000.025591,9.026293,333.775777,428.213987,8.668672,74.773392,3.699558,1
3.629922,244.187392,24856.633209,6.618071,366.967873,442.076337,13.30288,59.489294,4.754826,1
8.378108,198.511213,28474.20258,6.477057,319.477187,499.866994,15.389083,35.2212,4.524693,1
6.923636,260.593154,24792.525623,5.501164,332.232177,607.773567,15.483027,51.535867,4.013339,1
5.893103,239.269481,20526.666156,6.349561,341.256362,403.61756,18.963707,63.846319,4.390702,1
8.197353,203.105091,27701.794055,6.472914,328.886838,444.612724,14.250875,62.906205,3.361833,1
8.37291,169.087052,14622.745494,7.547984,333.775777,464.525552,11.083027,38.435151,4.906358,1
8.9899,215.047358,15921.412018,6.297312,312.931022,390.410231,9.899115,55.069304,4.613843,1
6.702547,207.321086,17246.920347,7.708117,304.51023,329.266002,16.217303,28.878601,3.442983,1
11.491011,94.812545,37188.826022,9.263166,258.9306,439.893618,16.172755,41.558501,4.369264,1
6.069616,186.65904,26138.780191,7.747547,345.700257,415.886955,12.06762,60.419921,3.669712,1
4.668102,193.681735,47580.991603,7.166639,359.948574,526.424171,13.894419,66.687695,4.435821,1
7.808856,193.553212,17329.80216,8.061362,333.775777,392.44958,19.903225,66.396293,2.798243,1
9.41951,175.762646,33155.578218,7.350233,333.775777,432.044783,11.03907,69.8454,3.298875,1
5.126763,230.603758,11983.869376,6.303357,333.775777,402.883113,11.168946,77.488213,4.708658,1
7.874671,195.102299,17404.177061,7.509306,333.775777,327.45976,16.140368,78.698446,2.309149,1
9.238957,170.327474,13170.23864,8.321699,327.067134,584.178654,9.794743,78.563764,4.382176,1
8.504335,150.19743,19839.080605,7.935453,304.809463,394.727069,17.506886,71.41337,4.151615,1
7.080795,166.04691,23403.955551,8.411581,333.775777,456.689449,13.174982,52.320277,3.268091,1
7.722573,139.434504,39158.958645,9.491184,211.380443,382.581594,12.996604,53.661745,3.721094,1
7.095201,192.951249,20329.484223,6.727616,312.853747,305.814098,14.469294,67.572987,4.031517,1
7.555477,231.855207,14273.367913,6.059219,369.724938,431.654286,14.352255,66.416123,3.658559,1
8.575208,217.718521,28039.178609,8.392338,303.802421,396.153507,18.7467,54.893927,3.974114,1
7.254125,210.804817,23258.191433,7.918079,333.672557,281.190667,11.878734,65.953079,3.522198,1
7.889301,109.138095,27366.311506,8.479432,326.15599,491.951594,17.628905,61.566401,3.321354,1
6.571197,263.89029,15977.145218,10.348689,270.235032,417.208609,8.315321,69.019866,3.678869,1
6.747396,253.029443,26847.336735,6.530372,361.033851,356.487602,13.967869,67.763014,3.625895,1
6.171686,221.896523,16379.879339,2.170173,261.687824,471.361959,13.413918,61.771,4.425418,1
6.567985,263.321582,25532.683073,7.005194,348.408853,495.330882,15.266233,47.51617,2.814136,1
9.064436,143.171825,19239.862702,8.9267,381.36372,471.27537,11.344206,57.748749,3.944793,1
6.466784,222.89069,19587.631475,5.086367,427.610299,383.539921,12.41916,75.616463,3.696627,1
7.677902,212.880716,29831.836326,6.848752,305.792512,444.910594,13.4182,81.140384,3.69461,1
6.218817,219.229618,14863.454426,7.905463,332.925649,350.719356,16.312027,71.97387,3.067965,1
6.554317,231.583911,14398.15263,6.09315,333.775777,368.087818,13.484642,42.624074,2.260775,1
6.85373,232.851631,21673.607828,7.908097,281.066315,429.786627,14.943214,73.845147,3.1131,1
7.188499,164.087952,15721.244428,7.677653,330.164569,438.04541,17.272805,84.144783,3.879708,1
7.282388,171.196438,27745.516106,7.871008,260.416043,476.149629,15.109919,62.700675,4.587035,1
7.387366,177.424071,22653.359191,7.07387,327.994291,426.844633,14.086501,58.968018,5.083175,1
6.549617,198.528879,22475.092534,8.970675,211.317188,524.118926,11.286546,57.105531,4.486254,1
6.799665,177.865826,35862.818035,5.062201,327.14311,463.662246,15.644305,90.681955,4.269659,1
7.242581,157.262628,16137.079726,7.592355,344.847966,629.165308,13.43429,43.571594,3.879669,1
6.66067,268.435783,35292.253111,10.500497,221.171585,375.519862,11.486313,62.958836,4.436591,1
7.278095,199.916942,29833.721609,5.735948,328.790514,380.766853,13.423298,45.074737,3.760171,1
5.365969,267.309809,28912.323957,7.640868,334.356257,369.525332,12.803021,64.899563,4.897428,1
6.417303,120.3021,25919.541057,6.305618,323.598205,406.458338,15.438136,58.027925,3.834695,1
6.892469,235.219491,13705.280827,7.313313,337.879788,551.164022,17.255265,72.708011,4.132382,1
6.958584,163.935948,20667.535633,7.566957,297.888972,473.519818,10.485992,80.991317,2.803594,1
6.113844,186.122963,13958.474214,9.731105,259.918259,394.414549,14.854576,74.500529,4.632241,1
6.673162,186.276446,20130.849713,7.294862,333.775777,388.889247,14.282726,76.744942,4.227249,1
5.364126,240.157978,48131.271223,7.974513,328.683461,566.159594,17.356125,73.149222,3.995292,1
7.663285,184.798036,23634.733683,9.164599,271.673771,341.312196,8.089605,46.363382,3.580169,1
5.799593,243.531515,7754.919265,6.932985,339.026207,471.776244,13.139589,51.051023,3.909831,1
7.708115,214.858022,15956.101899,7.778818,332.242313,349.671056,15.899248,76.853968,4.046176,1
8.241849,151.439823,45651.903036,4.834763,252.055994,411.216229,16.811232,39.538181,4.158387,1
6.862574,207.486144,34109.699869,9.198606,273.056507,436.195483,13.8708,65.391834,4.485568,1
6.979266,178.731819,26312.834521,8.45374,317.010452,490.787343,17.082806,71.749339,4.292292,1
4.913443,201.125286,17902.87341,6.944727,388.518782,600.506128,16.980326,53.038908,4.958934,1
8.223919,223.045089,6614.199336,6.906025,321.469949,498.284797,15.585755,79.897024,3.559132,1
8.364979,168.624731,19988.30257,7.751294,299.902608,486.278166,13.251154,72.726114,3.238598,1
6.315147,227.364409,12867.308323,5.27431,338.813528,389.656882,13.836314,80.078558,3.332104,1
5.314422,208.0261,15664.18403,7.241135,321.04845,416.213634,15.497709,75.9669,4.458196,1
6.323682,238.525674,8062.935895,8.688325,347.817454,389.929186,15.723342,48.654117,3.524609,1
6.482569,181.013231,25853.127728,4.86122,323.01952,452.742053,15.689503,69.394315,4.318631,1
7.493439,210.075589,21988.095067,6.043513,338.822,445.959286,17.12177,81.441099,4.128713,1
5.608455,183.117169,35828.852961,5.695863,324.990426,462.173452,8.183686,73.511978,4.47351,1
9.372467,200.848185,29505.630384,8.209162,295.282778,330.778125,10.044211,76.62054,4.483154,1
6.88731,223.358364,22527.493057,7.116584,365.462528,317.461639,14.677448,62.381304,3.760711,1
5.830768,138.030166,11569.899084,7.263832,331.906169,389.323256,12.178554,78.008673,3.349564,1
6.142296,208.029425,16931.508298,8.278488,312.767219,549.536779,12.907986,56.957146,3.975028,1
7.217953,172.806053,27783.910572,7.930568,294.413138,432.584795,10.585736,63.411882,4.011046,1
8.925936,153.090613,27898.380524,9.20588,333.775777,393.53588,12.491605,72.166607,4.131298,1
7.449232,207.929083,15633.983951,6.585577,334.140564,493.622159,16.698231,74.123175,3.8128,1
6.929073,197.082682,11349.885266,4.753649,334.1935,396.305799,10.968172,59.335372,4.957813,1
6.235134,205.686061,19222.562437,6.731093,308.734856,385.774317,12.357268,66.453106,5.40962,1
6.966335,189.649918,15282.966424,7.530141,319.169936,433.39299,15.860124,61.427001,4.936092,1
8.647107,115.359915,16262.767924,7.928728,369.822979,568.788421,13.14331,65.28186,3.629507,1
7.229953,230.397341,44327.184318,7.190756,241.317475,471.907173,11.895403,61.727823,4.377568,1
6.732824,233.499532,36247.180485,5.096524,298.217381,352.705001,16.765085,85.261292,3.621812,1
6.019142,208.776554,29270.475573,6.67681,342.028497,363.92211,18.955721,72.205109,3.575518,1
5.675549,195.262803,43744.710121,4.369231,370.930562,379.853461,15.405492,60.702818,4.046325,1
6.894992,192.801201,34006.347104,9.379763,264.878083,456.853428,15.725094,79.720701,4.531167,1
7.995119,205.494463,11567.875208,9.540875,359.240806,489.760841,13.069475,49.005263,3.607785,1
7.14976,175.224072,23332.926953,9.05813,326.175334,311.741394,16.270485,72.341465,3.632493,1
6.534844,83.024834,39219.891783,6.584607,335.827515,358.58063,11.809571,58.443833,4.938238,1
6.575243,256.014848,25585.162225,6.962257,350.651839,491.287488,15.075305,67.285369,3.540144,1
8.628273,144.221739,26611.148632,7.72635,392.145947,440.34798,12.07624,54.214037,3.890622,1
6.237599,144.951983,14527.35582,7.319593,352.915137,302.338922,10.024852,69.925087,4.362233,1
7.249669,261.533778,16114.13388,7.714035,263.395564,409.186639,18.016065,78.473119,4.716981,1
7.414494,166.938037,32724.268874,6.735832,279.848534,509.313586,16.514629,65.285542,3.995995,1
6.792382,221.389508,11285.586269,7.309403,310.385219,364.15873,16.631602,62.446508,3.088712,1
2.577648,174.331952,39007.430191,10.869147,282.437799,407.208783,10.852941,63.7012,3.781813,1
6.270048,163.6628,13583.965632,5.787659,396.735146,430.319362,19.760583,68.391805,4.62349,1
6.491288,252.236264,23758.970861,8.471156,374.682633,416.97982,15.776971,56.16629,3.414204,1
9.068517,174.847249,21150.144134,9.046577,338.553895,313.788529,13.88031,52.989391,5.12886,1
7.386173,213.774341,29936.813337,7.54387,303.236211,388.709281,13.146962,70.478519,3.912802,1
7.851962,158.391795,22922.261685,8.623023,335.877557,439.312307,13.376392,77.801166,4.173241,1
6.754716,226.951452,24683.713227,7.662492,329.297069,352.747658,8.012956,37.55545,4.035529,1
7.084435,163.445603,18551.826338,7.378191,283.126026,439.623228,15.568378,83.772697,4.204193,1
5.284252,185.658162,18167.397464,5.1495,377.40631,537.089989,12.539835,80.21059,3.780071,1
5.344401,242.893216,15990.028803,7.147998,285.750012,410.419979,8.861846,79.909062,4.856403,1
6.904879,194.564446,27365.644924,6.763868,361.19851,549.950285,13.473627,76.229114,3.948156,1
9.520166,157.581266,25507.953799,7.058784,369.386634,397.83866,12.768745,68.064431,4.162561,1
5.750732,251.873666,35389.323608,7.48155,362.905866,347.487571,13.505857,46.893926,3.842759,1
7.893359,216.625062,18618.471898,7.343103,324.142154,311.304785,18.48503,92.662904,4.597554,1
6.658976,251.22837,21084.42029,7.700308,333.375399,490.689144,14.134441,61.611464,3.674616,1
6.487211,189.761613,19127.487805,8.703241,295.589884,424.707054,11.890011,73.513164,4.704353,1
7.289909,219.565903,12837.303522,5.516165,363.255113,454.887922,17.063602,71.636478,3.87406,1
8.211639,173.472803,30276.674013,8.306632,256.925749,479.397428,12.389782,70.923709,3.767584,1
9.812936,273.354297,15150.832298,7.048119,354.832361,608.604723,13.403755,84.480377,3.805157,1
7.566424,161.212581,11791.290087,7.633066,333.775777,484.219006,14.873976,47.59364,3.922098,1
6.018498,233.641473,16656.553737,5.495577,336.268188,392.907212,17.925162,79.503483,3.154176,1
5.181115,166.410455,38748.870716,6.091956,444.392169,483.069925,16.66793,51.582688,3.722169,1
8.08516,233.473177,19660.566853,5.92479,360.921488,369.829679,11.48109,69.200767,4.231955,1
4.063696,323.02713,38934.820017,8.439424,322.282164,506.254344,11.013614,64.179224,3.610407,1
8.053637,168.118625,18152.654708,8.512389,323.09354,518.028086,14.050936,62.643427,3.260232,1
8.142311,173.782005,21365.165186,6.38506,315.607539,460.520256,11.90624,47.89005,2.568666,1
9.138845,177.92457,15773.444316,7.873054,329.204885,404.473704,11.60118,61.282765,4.005699,1
6.541115,160.693374,31989.776932,10.599576,261.799306,480.497177,8.66259,74.137711,2.553516,1
8.01152,195.029457,18086.730114,9.959685,409.059278,344.826395,14.016084,58.253762,4.063587,1
8.018878,155.841286,9011.66771,7.731333,334.650137,395.018447,9.005839,60.522944,3.635071,1
4.838894,280.650329,26934.927621,6.814174,327.048919,466.445601,16.683358,62.130534,3.64548,1
6.37677,188.218761,11999.771649,8.129355,362.015251,415.59331,13.197888,65.891815,3.934711,1
5.980898,219.797401,25217.282085,7.043747,341.937346,513.332293,12.884173,105.651827,3.832642,1
7.374899,213.205828,29320.590438,9.779175,228.078053,409.812853,13.628351,75.520645,3.279147,1
6.681965,226.315641,30841.68009,6.420574,364.496849,314.725295,13.337382,69.660599,4.094403,1
7.342172,219.645721,12071.367601,6.042503,370.979951,411.443068,14.701249,67.429756,4.542752,1
5.448668,197.48657,19385.648709,4.316212,297.064972,348.497536,15.143924,69.829844,3.798518,1
6.913865,157.461691,17971.746596,7.038829,355.540576,344.26635,12.256545,39.114706,3.393206,1
6.771488,190.661122,22020.289092,8.034693,362.725687,362.638295,10.317294,65.155673,4.093988,1
6.797533,244.531805,11515.628037,4.47771,370.379394,572.710898,16.079772,51.696339,3.385948,1
5.771822,185.712347,13897.966882,7.054233,337.984927,432.981186,17.899966,63.405961,2.63016,1
6.405383,211.142258,28181.912684,9.805141,265.370929,443.31448,15.93611,49.661178,2.850817,1
6.479493,258.967129,52115.586509,5.676903,338.293104,395.955178,14.965376,70.198922,2.227018,1
7.811764,216.30688,29562.569518,7.367946,334.840024,279.065241,12.682058,86.332127,4.610262,1
7.220664,170.142615,24407.729085,5.610261,305.120675,414.771152,15.449111,90.16802,3.165956,1
6.965264,144.939215,33758.191158,6.56395,310.817356,488.323492,13.718039,43.884093,4.406079,1
7.236286,218.207294,28324.968277,8.201281,290.720416,365.146935,17.396337,33.139929,3.838808,1
6.209867,194.914053,17368.388474,4.934537,370.929358,390.214127,12.233958,54.17826,3.956858,1
6.833315,231.633937,36046.084372,9.617612,316.008032,311.56444,17.377151,93.244105,3.261424,1
8.08593,125.508537,7738.260328,7.826242,333.775777,489.849954,19.360649,63.204055,3.667578,1
7.338168,226.311979,5503.736277,9.695579,333.775777,356.498808,18.421004,46.302194,3.843507,1
6.854242,217.007359,29875.56581,5.820384,337.479419,400.677695,17.762908,42.000973,4.377197,1
10.146152,195.961029,18853.203505,6.557246,273.833063,416.045537,14.728921,77.968035,3.190478,1
6.946342,162.826877,21629.506096,7.1495,329.232416,392.226688,15.060386,59.117159,4.411664,1
7.005006,226.580324,45249.351614,4.589628,333.672244,338.603838,15.943591,72.854755,3.244709,1
7.561763,165.351042,20433.728564,7.677694,327.441354,441.245734,11.385454,63.293126,3.276669,1
6.688145,219.860948,29208.972506,6.656288,273.22604,352.618584,11.128158,81.58573,4.348216,1
6.556008,175.348547,25094.076546,6.607735,363.775898,296.526764,16.322728,73.859106,3.761037,1
6.22976,242.833027,26125.271599,8.504337,280.911112,460.913632,8.506621,69.646581,5.914484,1
6.926772,217.190766,44335.385184,6.210933,325.072967,366.175623,13.581617,66.576097,3.975511,1
7.399149,190.120061,13646.690219,7.804487,369.584307,394.325074,12.934496,73.361215,2.755691,1
6.775115,198.11455,20210.144857,7.358072,249.256649,523.563564,19.278544,51.56605,3.69025,1
7.223288,185.303344,41465.920024,8.513531,272.195107,379.643655,10.939738,68.186086,3.266708,1
6.910896,177.652435,16217.69014,7.115473,333.775777,507.889748,20.268745,71.42275,3.612902,1
6.443494,237.772391,13970.917013,7.687187,303.177323,474.724793,17.657096,79.896751,4.443657,1
5.988717,211.957867,27368.858691,6.640325,338.648429,456.865819,17.139023,66.396293,3.466253,1
8.563515,181.48183,31505.063841,7.454544,341.527181,387.085023,16.140921,67.9672,3.609704,1
7.269716,207.593012,9380.864357,8.2166,290.557905,472.216572,15.207127,61.28162,3.675499,1
6.840489,227.801784,15884.211496,5.482873,328.891902,348.073043,14.020994,61.092752,4.04402,1
6.583691,221.716684,17989.094118,8.9367,388.505663,354.645301,13.855152,53.558587,4.051351,1
6.686011,165.487958,24258.756747,7.818158,356.034766,335.098498,15.89467,79.269767,3.893326,1
6.960724,197.138427,16898.861771,6.807254,328.075563,510.716994,13.205686,63.654011,3.827964,1
6.559815,139.073924,9714.048409,10.121388,340.244299,400.164626,12.423352,62.574466,4.145424,1
5.142329,233.097334,25642.620276,7.843853,330.029136,520.981223,13.677757,39.588726,2.384841,1
7.186469,276.512624,21692.398978,5.879545,363.261858,349.736488,14.864072,83.269956,4.022851,1
7.742471,192.655572,14250.342903,5.464973,368.791625,417.781339,8.483639,76.420027,3.089832,1
6.670959,178.249237,37297.068998,8.0453,253.158627,382.71996,15.664869,66.698605,4.137608,1
8.36758,189.826107,14539.888133,7.423498,413.691207,295.261967,14.772113,63.826995,3.880447,1
6.985639,266.548662,15391.386287,7.068445,316.409094,416.549275,14.839759,55.872542,4.330612,1
6.883941,169.089649,13824.838329,7.591538,332.100726,360.310098,13.317511,65.54618,4.365972,1
7.429102,159.288125,19645.678912,7.4025,311.352643,402.60406,20.290244,50.276809,3.047405,1
7.116527,220.996572,46981.773353,8.098758,274.425241,564.290356,14.695521,72.757771,4.039971,1
5.941159,222.560706,20852.602917,7.471503,340.89686,407.478897,17.312569,75.39382,3.371436,1
7.926549,197.492491,10261.619566,6.6209,342.23814,415.912372,13.149157,67.813539,3.211615,1
6.567406,187.568594,25700.607643,3.528155,418.264422,369.136124,14.473869,61.333848,4.307632,1
7.051732,174.79312,28889.874656,4.308939,344.504788,589.626307,19.919636,58.123277,3.508585,1
6.984377,209.648697,24248.22818,7.331499,335.106095,352.685855,17.654432,68.499318,3.688628,1
6.485691,213.811649,11720.969841,7.406083,308.911187,443.043325,14.639168,62.688123,4.529539,1
6.801993,221.6448,12882.046264,7.638817,324.057089,393.499274,13.690172,74.480282,3.643131,1
7.38485,194.20722,9028.35576,8.910989,334.857069,379.233558,8.70999,79.842753,3.764949,1
7.117319,228.534521,19000.26159,6.330174,341.984278,368.601689,16.6086,74.738646,3.451599,1
7.717252,216.697144,6777.001954,8.200213,333.775777,458.282595,15.44679,61.184957,3.718189,1
6.838372,243.131379,52292.716113,6.641894,362.576457,358.131296,15.647232,74.468839,2.721019,1
6.593152,201.820351,23462.090482,5.992841,302.793639,433.883102,14.853449,59.385251,3.434451,1
7.984426,188.612331,12525.852774,9.563014,386.365901,471.206792,8.620896,66.249823,2.960593,1
7.486202,188.250368,29438.478398,8.047505,353.238101,602.250184,18.765402,74.721869,3.986912,1
5.227791,223.796733,22958.384959,8.834899,298.488909,472.633434,12.634667,63.33204,4.679549,1
6.004271,158.783411,14564.931845,8.847299,333.775777,317.166276,12.162738,63.53027,3.462895,1
7.598326,231.9291,15498.507843,7.869177,353.02468,374.861674,15.29502,59.086443,4.205769,1
7.949111,200.903187,16920.533424,6.301537,336.653769,526.182691,16.912737,66.205673,4.0102,1
6.75354,190.558862,31091.741106,7.415476,373.639483,512.798257,13.319615,74.784144,3.698077,1
7.457832,203.461225,20223.147358,7.490856,340.70683,506.802439,17.619347,71.636974,4.176866,1
5.819295,221.63598,17606.261083,6.99241,277.625813,493.557551,13.971924,66.457684,3.879536,1
8.236436,188.494362,24708.213328,5.100851,337.44741,468.217358,14.793189,46.125315,2.10156,1
6.359239,166.555284,23849.939702,8.539596,333.775777,538.470758,14.423869,64.927856,2.908832,1
7.806853,212.353408,21322.921634,6.241399,319.598364,500.88476,12.170083,85.025237,5.042828,1
6.674964,196.613922,9744.681177,7.80725,314.52573,403.733558,12.630394,65.403969,4.919855,1
4.439787,258.073547,26732.683153,7.267099,371.721202,377.995784,17.352175,97.468536,3.999399,1
8.10395,169.766215,21428.350947,6.213951,342.946012,458.540093,13.81623,63.207569,2.875391,1
4.716534,217.206014,13937.640881,6.851071,365.995037,548.195752,13.513974,73.345935,3.64823,1
7.080795,222.192352,12857.847119,5.592859,334.701214,395.009958,13.795767,77.570354,3.449018,1
4.797203,171.470351,18638.85791,7.117825,324.069285,523.219139,14.505406,63.088558,3.759217,1
7.106627,206.948364,33681.955884,5.716831,332.529667,407.859162,14.408431,68.467513,4.59774,1
6.333008,160.672522,21200.102719,9.109498,322.765533,310.165543,14.049754,63.285117,4.705218,1
8.778453,216.552501,16559.312883,7.645183,321.822935,522.947437,9.188143,68.587046,3.814006,1
8.15735,218.496751,7949.335033,7.494252,277.035156,373.818241,16.622971,74.669473,4.452958,1
7.615628,208.150892,17247.640318,7.692536,287.04775,322.804806,14.00399,49.880628,3.300521,1
7.72236,210.625984,32185.748446,7.229766,321.087702,482.204685,15.628143,80.548134,4.396442,1
4.418784,167.953573,41409.6463,7.570833,363.327797,407.88322,11.598466,66.400776,3.245518,1
6.999613,214.26759,20483.216001,5.785466,325.098044,331.386839,15.55853,66.330814,4.504043,1
6.650864,190.27013,31980.090202,5.900195,323.265455,328.90236,14.1467,65.78558,4.41905,1
5.954584,195.815859,33631.753957,5.718625,332.880162,477.889656,18.732418,72.28663,4.504561,1
9.206252,199.617247,25118.063171,6.22357,326.587517,487.244091,15.445257,56.305202,3.884779,1
7.080795,190.54992,20098.489399,8.567287,334.01959,336.998632,12.064334,77.334774,4.023101,1
6.502179,185.008034,26377.939275,6.37715,377.110726,506.266322,19.641525,54.134884,4.328339,1
7.138753,169.311313,37206.799467,4.452692,312.484182,445.069624,17.034392,63.409433,4.147911,1
7.592467,222.774727,14333.542144,7.246817,342.067218,420.498685,17.055827,65.82325,4.369632,1
7.623377,209.518697,15161.135326,7.391743,386.843979,428.226952,13.144204,72.123718,3.563159,1
7.157592,200.762008,19538.708427,7.551962,299.942271,383.799274,13.052023,74.971318,3.534463,1
7.110583,242.437098,16032.219568,9.74634,227.332426,405.726519,9.233102,78.023785,4.805607,1
6.763429,206.621976,19954.926972,8.390517,292.860905,346.161071,17.368698,81.859332,3.602194,1
4.680146,181.398917,34262.461513,6.125857,310.325551,439.633348,11.177618,66.396293,3.764385,1
5.774467,246.515755,28126.089878,5.896679,355.968116,523.322929,16.528802,67.417171,3.312572,1
7.949505,212.049615,9056.257423,8.815647,309.631604,339.399156,10.662361,76.917556,4.006291,1
5.93502,192.332096,31140.530917,6.14868,334.818725,392.42896,13.730767,93.256841,3.942424,1
7.428038,222.092162,17704.834894,5.555492,302.066838,514.394833,11.796814,71.313295,3.801712,1
5.695328,170.413034,34690.914164,3.421009,376.945801,389.286013,14.765958,65.949817,3.920571,1
7.949719,203.234694,29520.49409,10.257964,298.324392,351.969726,13.479712,71.752588,3.728057,1
3.661581,145.75861,26730.655498,5.031572,372.432549,450.823255,14.90442,81.964421,3.978243,1
5.634397,169.159986,14639.755835,7.686884,333.775777,456.911521,16.022489,63.039632,3.906455,1
7.994923,176.09422,13945.305206,10.407894,288.670004,431.534064,17.231009,61.473469,4.897125,1
5.538045,194.782643,14455.89992,5.895056,313.953506,467.943077,13.691326,93.49147,5.028899,1
5.486768,179.39665,25866.225189,7.036572,334.361773,417.494821,15.093418,65.980313,4.692702,1
9.883086,224.11804,11934.228925,8.507496,336.879577,351.813893,14.7897,64.846827,3.955272,1
7.793785,198.407531,24360.300294,4.800673,279.606611,409.468654,17.006234,66.664068,3.530716,1
6.58858,177.416084,37851.734517,8.261169,343.568618,396.039408,13.877582,29.078335,4.777843,1
5.233118,191.472971,21798.105958,5.847375,339.380058,353.759107,14.206609,43.452637,4.757478,1
3.729323,197.431628,28499.481299,5.837822,315.159298,500.498143,11.499303,74.755473,3.896683,1
8.736193,198.496633,24164.991845,6.226555,318.059672,491.065314,11.751396,75.869513,4.728355,1
7.629576,222.946048,15085.19955,7.639504,328.897803,540.578648,15.003344,79.473667,3.994635,1
7.928936,202.395347,16194.853302,7.737352,382.213659,345.113772,18.221001,76.844876,4.48254,1
7.944638,210.170255,13734.736742,8.087254,345.021504,338.75464,16.088268,76.879505,5.136978,1
3.4727,180.784499,39034.567968,9.026455,227.748555,386.877812,11.791844,65.342491,3.64155,1
6.398209,223.16634,15138.0945,7.280237,325.926325,432.377586,12.460341,53.62834,4.173551,1
6.874419,197.025077,25039.629172,6.253974,308.970555,505.075868,15.638677,83.500164,4.960452,1
6.76584,188.113785,14879.905691,7.206005,354.562086,436.685617,17.596056,74.7356,3.712465,1
7.980026,198.9507,22961.234556,7.471055,311.08001,360.146765,13.435801,71.064598,4.092438,1
8.619378,213.876987,18142.079755,5.334078,308.180395,347.458636,18.639296,78.844077,3.248999,1
6.715304,197.559458,11551.388833,8.477002,358.827164,496.101542,9.099671,79.265686,3.441778,1
8.818713,218.968048,14754.26551,7.029208,356.946465,504.483496,12.755412,65.722948,3.875632,1
6.767688,205.425559,20117.550921,7.737144,217.143039,593.105448,13.208897,52.816077,3.767571,1
6.783273,187.115251,18497.838351,6.173136,319.270665,368.795772,15.188837,65.920236,3.764049,1
7.40977,173.652114,25064.257218,8.490483,364.228249,310.410965,15.588787,74.047598,4.399564,1
6.123031,162.3776,11120.418845,7.00585,334.682481,445.404571,14.145917,64.966483,4.808017,1
7.057074,203.399225,12262.099249,10.385265,327.460482,357.127904,15.175625,79.841064,3.880816,1
9.388447,211.698124,13788.490707,8.07586,334.111263,344.370655,15.921066,70.90968,4.153319,1
6.773034,125.7321,11299.331805,7.21078,313.456251,339.073482,14.815217,73.483651,4.43844,1
7.589053,205.953606,34255.079291,6.999608,302.261789,373.713244,13.546176,79.162679,4.412084,1
7.661105,192.213193,7502.183892,7.754686,348.441427,309.161863,11.110939,72.777328,3.835974,1
8.235799,170.957674,33675.120141,5.460999,333.775777,470.002749,12.975815,68.289911,3.734453,1
6.953406,193.473756,13782.873082,7.748785,370.092112,326.738282,12.261079,66.336287,3.958555,1
6.800627,197.085066,28412.578041,5.209722,361.375579,406.824755,11.814046,80.614671,3.072331,1
7.202903,141.780901,27943.538783,9.370606,333.775777,434.664712,13.374932,64.626254,4.157369,1
8.071281,169.143281,18109.60747,8.812191,339.579427,568.850062,12.996966,85.605496,4.319143,1
6.914196,208.534334,23632.66627,6.509487,295.725859,448.184998,6.343087,36.015835,3.016807,1
6.220664,219.698724,22448.013075,7.865108,367.101392,355.97371,16.210231,76.198089,4.568941,1
8.927691,181.845911,23295.98341,7.166431,342.162065,388.191264,11.70514,69.011683,3.941859,1
5.952306,227.611732,11581.253104,6.296028,333.775777,409.056874,11.692501,81.788914,3.751856,1
6.387836,181.941836,31992.055446,7.348344,322.850105,487.528053,8.882885,44.358773,3.527335,1
7.463289,177.671704,22664.102951,7.527441,316.779042,375.114531,14.739307,63.194694,5.61118,1
6.334892,192.464997,20589.096608,3.611944,341.719511,425.272746,10.437058,66.936696,3.075115,1
8.602747,214.719476,19880.586671,7.698398,326.956292,459.087536,13.981332,57.259917,3.517898,1
4.201591,173.855077,21784.253631,5.12918,344.590608,399.266723,14.577395,49.699934,5.23835,1
8.321515,230.855589,15071.15237,7.669183,333.775777,446.473708,14.872474,76.015267,4.060525,1
7.743241,226.669191,13241.90581,9.969523,318.888544,354.190769,10.037253,63.880606,4.687262,1
7.674339,206.668384,27037.169335,4.163531,297.071715,505.202236,12.772616,47.501064,4.09409,1
7.633936,223.125598,21682.536117,6.306674,386.145084,398.626975,15.68167,70.083842,4.353876,1
7.697201,207.067828,35271.181316,8.12781,319.459551,462.182577,12.046306,53.612137,4.526553,1
6.273542,182.61223,16282.718685,7.577481,321.071043,381.411871,13.642682,89.241247,3.566666,1
5.623038,229.871793,13280.872548,9.832851,321.202914,350.208822,13.637783,90.225214,4.394048,1
7.056164,187.366208,26218.705199,4.677489,334.360629,370.386596,19.867967,55.120858,3.915595,1
7.29445,195.27762,19626.994314,8.00631,313.055201,377.463501,19.141814,54.043534,3.105144,1
8.818822,187.999173,27844.317489,8.26459,304.367582,351.717306,14.199872,72.972412,3.929634,1
7.059894,208.697656,16698.440468,7.86431,287.641946,452.962707,18.185229,80.804904,3.390531,1
7.683873,194.922351,13894.003119,8.007458,405.336116,341.148902,15.356752,73.932529,4.048818,1
6.573395,178.323793,34577.671871,5.852998,370.80861,293.971948,14.159776,75.739238,3.551468,1
6.919812,178.563308,37975.523685,5.045129,338.98668,506.638958,16.151866,64.147064,4.403508,1
6.544326,199.365691,38976.977176,5.96739,396.787759,476.401033,15.647006,61.54357,3.313788,1
6.756327,178.803977,34603.713245,5.616329,365.519243,394.682194,16.34038,64.954177,3.71554,1
7.783312,162.380689,15923.146934,8.89687,327.20896,425.39273,12.901332,65.96836,3.794182,1
7.039489,226.808806,12861.80973,6.938002,334.94891,385.347945,14.963696,69.85204,3.49957,1
7.717652,163.186716,27025.16468,5.277015,308.602926,420.365288,9.608416,61.36482,3.523591,1
8.072151,164.680542,28225.888537,7.908321,376.876407,443.880608,17.394852,77.566203,4.930188,1
8.034225,225.668434,7132.088287,8.590796,321.637952,286.961517,10.219313,56.166485,4.052592,1
8.308922,182.51842,36522.848693,6.021179,311.614366,443.742163,14.367955,62.023692,3.796838,1
7.60037,198.479759,25401.79887,6.349717,302.671334,426.631635,14.31087,68.227416,4.530753,1
8.41543,197.926567,24106.01513,6.575755,310.762887,492.973113,11.735418,57.021652,4.891524,1
6.371819,160.351524,27824.057032,5.692647,340.668986,437.846397,15.096916,75.311892,4.54262,1
6.575386,196.72113,9628.718328,10.118086,242.91448,401.786111,11.646105,41.238663,3.553757,1
8.244355,192.112592,8269.126489,7.884083,344.655311,463.789862,13.592305,78.633442,3.279018,1
7.157153,184.613811,18142.760169,8.35611,395.388848,538.16258,16.990549,58.184647,2.645162,1
6.924955,169.170309,21380.46937,5.304927,296.216568,392.018314,5.497227,79.499964,2.609356,1
7.080795,228.655479,9775.455972,6.495779,248.116127,334.15763,12.988522,32.643937,4.206165,1
7.057478,220.96448,10374.429234,9.640272,333.775777,387.399841,11.328779,71.493932,3.691375,1
8.932986,181.604661,30287.922856,9.25561,410.779967,504.438124,11.822939,62.724072,3.926287,1
6.465636,171.834799,24710.724581,6.668931,362.260065,521.58467,15.43523,42.560881,3.891672,1
6.64293,184.2907,13695.391012,7.662496,329.315529,428.625389,15.801167,83.707628,4.976089,1
6.862872,179.683738,33079.197842,7.173427,346.312905,421.337241,9.615349,67.734038,3.605985,1
4.088019,189.97426,25937.239942,6.620762,350.732471,481.663083,17.94028,68.199427,3.560047,1
5.526885,210.868803,29239.214153,4.768366,336.183744,365.50681,16.160078,40.581462,4.095383,1
7.327375,231.009979,6768.454993,8.662779,330.604808,462.125591,14.258494,78.580837,3.538272,1
9.670275,222.296153,14654.282307,6.476239,307.264757,349.632119,15.701153,55.338074,4.382315,1
8.053665,230.996972,7018.758963,8.747503,390.133133,394.952506,12.370796,71.293194,3.763289,1
7.345978,182.774985,18475.050472,8.097832,278.811768,445.983712,11.07564,94.312278,4.905438,1
7.184817,209.559131,23560.558345,6.201904,357.972751,421.173372,12.174448,75.998232,2.951847,1
9.021835,208.29904,20591.391972,5.660093,347.485297,401.988873,10.649813,65.812821,4.390446,1
7.17688,220.323119,22529.491352,9.258533,364.273866,316.575499,10.500946,79.955649,4.203921,1
8.513059,225.066916,9593.436815,9.142423,251.769903,358.825686,16.563457,60.533949,3.150066,1
7.722755,221.715721,18453.713434,6.047836,260.213105,369.601918,14.76504,92.169929,4.365101,1
7.713346,225.980439,14209.440867,6.219323,330.440576,467.425113,12.202687,72.427259,2.479582,1
5.66836,184.787785,35703.337563,6.457102,310.121489,452.726701,8.618188,66.762247,3.801324,1
8.519349,275.569973,16101.014897,7.731936,344.380091,518.73952,17.888002,65.323053,3.734579,1
5.740498,130.780991,27169.02487,3.826441,337.527752,386.032793,14.113859,64.679979,3.256876,1
9.234676,208.586756,29563.199139,7.504812,281.327555,341.14097,13.349971,71.110301,4.667742,1
6.762538,184.997826,19575.441852,8.485615,410.348621,413.531335,11.341364,78.469164,4.306264,1
5.432977,170.556582,25863.45517,5.96877,331.10023,369.486584,13.616669,48.796798,3.754665,1
7.354962,190.373418,16905.366229,8.478368,399.603847,321.044219,12.424486,48.179704,3.430797,1
7.080795,225.532215,10517.774958,6.929374,333.775777,348.661043,11.446604,75.861871,3.071255,1
8.863886,223.218665,15413.373601,8.452175,315.756858,426.182571,15.584084,64.146987,3.512158,1
7.114539,216.330276,9414.778685,7.351675,316.098195,501.928076,11.296069,55.814225,4.539821,1
6.751475,199.934127,7017.805803,10.896131,330.86045,387.129501,15.396806,72.474081,3.795522,1
7.428837,190.093523,23859.178263,8.007217,319.692226,413.514225,14.513615,60.044877,5.068643,1
6.178175,118.503799,14454.625591,6.575286,291.564835,495.624914,14.402494,93.85578,4.34252,1
4.821777,206.110208,21849.689068,7.400228,333.679638,435.851587,14.280348,76.032179,5.362089,1
5.867368,187.55666,31400.762744,4.965357,342.487879,506.826049,15.966291,61.852403,3.096202,1
6.547684,174.44232,12264.852602,9.917109,354.725454,356.115314,19.022097,86.58817,3.37117,1
7.082694,205.339579,21774.546223,5.950251,332.466804,393.89154,18.236149,50.888201,3.993143,1
7.159978,173.148892,22316.514928,7.412931,379.818765,320.059156,12.748721,68.494822,3.806376,1
7.124738,172.455263,28870.230121,4.324201,288.180196,532.07405,16.883508,54.409223,2.370771,1
7.118697,168.446006,22844.855819,6.285312,293.167825,482.064655,15.427371,35.87686,6.199908,1
5.54435,240.195157,6348.111996,7.173181,395.565351,368.201273,12.770711,82.492791,3.796415,1
6.466191,147.134821,9720.896094,9.22312,396.193612,336.135169,11.456713,42.019995,3.951517,1
8.215553,169.651352,21161.767694,7.398735,287.446318,335.081554,14.257166,65.792726,4.874835,1
7.605829,164.702038,47789.885525,7.129563,289.428463,428.561264,12.73655,64.900768,3.092288,1
4.430641,198.665708,18639.194128,6.731045,332.017532,468.650679,14.115562,80.950056,3.355934,1
6.979555,184.707573,20205.408337,5.758161,372.322727,532.811242,12.402215,67.14247,4.891538,1
6.66511,206.228676,11517.067256,9.865751,338.692233,330.50266,11.933495,59.622552,3.41036,1
9.129027,169.910533,23338.333769,7.65356,342.460469,357.506152,11.855802,79.914534,3.686991,1
5.096153,221.945251,14942.81935,9.229907,407.938147,458.089375,10.44668,54.950408,4.559764,1
6.97577,161.31924,27300.300204,7.26316,326.935886,329.089136,11.971996,39.395361,3.069511,1
7.600169,177.540875,21325.512792,6.180608,333.775777,420.531498,12.117964,66.014282,3.894972,1
7.103337,177.905055,23120.032296,4.605447,296.177279,431.395616,11.316853,77.727017,2.940126,1
6.911334,225.299515,13774.932522,8.461081,341.782887,519.901408,14.51122,81.768627,3.785187,1
7.128986,203.050187,27028.616664,6.627346,354.837977,438.46804,12.44032,54.357248,3.611392,1
5.711127,204.842812,8063.225635,8.11123,331.331392,449.253961,13.52659,83.560019,3.938231,1
6.624772,195.701853,17452.178929,6.691765,340.259406,437.004221,14.052211,71.623393,4.535939,1
6.85061,221.482758,13978.471761,8.94164,378.476655,501.453309,17.201086,73.972036,3.882751,1
7.080795,230.49124,19977.914614,4.910701,372.832587,324.818201,13.60098,33.25699,3.749496,1
7.080795,195.342365,17538.097091,8.030382,372.467269,316.335238,12.503462,70.988729,3.107348,1
7.319095,189.14269,21314.033584,6.546387,333.775777,420.82149,12.477228,61.720849,5.527664,1
7.25147,183.800463,22813.658141,8.24235,334.341356,522.62844,15.479953,81.038798,3.0798,1
4.21834,204.194541,21783.8876,6.20695,357.308727,328.944083,11.30889,40.413834,4.592595,1
7.080795,143.359036,45239.914788,5.23495,240.879613,394.287358,17.945648,60.590553,4.576655,1
6.883353,189.386789,17050.735462,7.114296,355.079656,554.557314,10.588057,74.58859,4.073669,1
7.971747,208.853053,37109.125639,7.620214,252.32734,525.683382,13.323227,74.30755,3.37686,1
7.259903,154.737499,31150.206667,4.732605,256.425868,455.804585,16.568317,70.56199,3.505109,1
9.20544,217.140024,11958.461309,9.233516,345.154337,368.825884,14.208346,61.704201,3.605394,1
9.478099,164.258602,39847.860947,7.410705,317.32828,419.231357,15.549421,94.708155,4.480326,1
7.512992,206.827672,14736.692986,6.748461,356.922809,481.66227,8.959322,65.900593,4.338593,1
7.134596,215.538078,17067.131806,8.873744,342.644046,503.516593,13.815525,67.715986,4.114099,1
7.215755,202.125789,21755.899764,8.08008,356.864857,430.274624,20.693549,43.879048,4.060954,1
7.991891,188.902623,22013.516297,7.698934,313.713737,360.547597,18.321819,58.903683,4.685755,1
6.394778,234.124999,44452.411563,4.24767,224.487685,486.188794,15.667436,66.851424,5.38622,1
6.658392,235.348712,8084.125044,9.613266,415.522702,417.092716,11.598289,48.699274,3.871463,1
8.29958,152.632775,36302.234095,5.182519,318.707443,604.997969,19.271451,60.119621,3.412141,1
7.156571,201.232343,19774.42726,7.253845,329.219713,381.890167,18.744672,68.923552,4.258519,1
4.591447,202.642355,28695.994849,5.250906,310.211956,505.17852,10.283568,70.025388,4.359321,1
6.333383,209.862644,11925.233784,8.110557,333.775777,362.724766,11.48284,69.62172,4.402099,1
6.470502,181.71232,22383.235389,7.286197,376.995628,389.222001,8.000265,85.798517,3.695767,1
8.05248,157.805042,22164.744829,8.263832,319.598966,432.546673,15.145364,82.863683,4.256528,1
7.59373,180.310933,40768.039714,4.696349,282.797703,318.598106,14.103977,69.619291,3.907813,1
8.353666,185.931968,31093.593776,7.905195,298.208007,416.658565,16.009046,71.032332,4.183325,1
7.541237,212.825779,21679.391325,7.681239,337.152075,414.191329,13.298939,51.678012,3.27716,1
7.293388,178.162555,34434.628217,7.445894,306.18295,527.23497,14.864222,68.831828,3.85305,1
7.23172,174.243151,17105.527181,6.758658,318.636329,427.703776,13.346282,51.7183,4.84185,1
5.014224,157.600343,18058.9674,4.487632,297.919373,537.221395,15.139006,89.663008,4.473452,1
7.398809,180.546138,25438.541336,7.472328,405.669031,390.17607,12.173448,74.393938,2.713781,1
9.441234,136.594897,20442.522586,7.184748,289.740716,470.923546,13.889417,56.969862,4.116886,1
6.396842,193.122282,13421.645577,7.763743,375.863912,424.660616,14.410228,64.368862,3.234712,1
5.821196,200.761295,19425.632243,6.668956,313.225063,373.93995,17.518065,20.070283,3.024158,1
7.922613,156.821448,33726.704067,5.483452,337.466155,342.684825,14.284222,59.35188,3.669775,1
8.989185,157.811784,35021.637772,6.051689,333.775777,502.73923,8.607207,29.269365,3.61198,1
6.820037,183.084413,18543.196714,6.684904,292.963931,391.934549,12.870371,85.482573,2.987934,1
7.717608,184.192634,23336.661786,8.266971,333.775777,354.609343,11.210222,70.967842,3.720593,1
6.158389,225.346063,17800.412084,7.506514,333.775777,507.694574,14.038408,54.15508,3.057949,1
6.992414,212.239165,16929.778505,6.666726,327.296012,318.077824,18.116926,74.057365,3.664036,1
7.763036,198.890066,25502.28739,8.111173,369.753549,404.314638,14.411866,68.47717,3.237606,1
7.155898,232.493208,1543.418501,10.442281,422.669403,359.022287,15.738712,62.790212,3.865179,1
8.31594,187.397464,26458.662908,9.363878,400.098251,456.818296,16.080313,43.218972,3.626453,1
8.072849,167.447175,32139.158335,8.889743,267.417481,343.58194,12.570689,60.114784,3.569527,1
7.545859,223.021117,14755.998168,6.709921,370.842835,501.126009,10.280548,60.426613,4.248781,1
5.030998,207.462777,11844.765883,7.230835,360.854541,418.624206,10.76538,56.062866,4.371819,1
7.153417,162.138762,27716.571976,8.598456,260.723983,448.435007,14.569526,65.583908,4.784822,1
8.42471,165.984684,28274.578968,3.666614,253.45186,448.546076,12.680538,78.848707,4.164562,1
8.332291,174.281915,33689.814026,5.093843,357.506499,349.639765,14.411472,81.780601,3.610559,1
6.349013,191.952811,18560.767577,7.81944,374.606471,480.784398,13.831544,90.262505,4.432564,1
7.807941,187.887659,28344.661102,6.766221,318.589041,496.67825,15.356426,87.011931,3.806372,1
8.379623,163.571602,39567.135098,6.839021,309.734254,440.636761,13.477403,66.27129,4.517396,1
8.007015,208.938219,15938.847708,5.888807,318.195947,399.492084,10.389458,60.104482,4.401621,1
6.161695,175.846207,34988.054835,5.740115,297.648031,533.695242,12.363037,32.727229,3.861054,1
7.117246,201.182931,19469.992876,6.783792,331.992868,336.925428,15.711686,78.283501,3.512832,1
6.955565,218.434964,17074.876452,9.157082,348.245802,508.418491,13.310484,61.324596,4.018036,1
7.309078,171.742192,36141.872013,5.962271,301.926059,403.187007,14.105691,87.679623,4.516895,1
8.357814,199.284278,34580.70237,5.579632,301.008956,340.183407,14.306202,70.383612,3.705631,1
7.415166,219.713483,13272.385198,6.398392,333.775777,532.136327,16.604503,66.637475,4.515361,1
7.004707,213.921583,24835.859508,5.790039,317.229977,385.723288,11.428502,53.434916,4.799752,1
6.441416,214.544679,13287.672904,8.368899,338.017892,367.251038,11.185044,96.188765,4.199703,1
6.170769,226.910936,7332.17996,7.261292,326.851611,409.688178,11.182412,69.795981,3.202344,1
7.226805,187.49094,21985.370449,6.779684,355.459133,499.570593,15.557538,85.048165,3.909378,1
6.342985,188.448397,33327.755342,6.620303,334.905987,501.455005,17.204936,65.514052,3.861374,1
8.22596,204.79452,23559.618285,5.54749,316.46913,467.436418,13.376093,47.140567,3.873274,1
8.290734,171.667004,38006.153753,9.356499,344.584721,467.76851,13.723298,65.574908,3.768661,1
5.230694,199.252332,29239.927904,4.970643,341.183292,361.596421,15.39055,64.859452,3.61179,1
7.030059,247.75917,24552.025045,5.491372,354.243284,406.052349,14.43162,80.06951,3.636652,1
7.899239,179.231992,34539.788809,6.301324,354.588267,449.23844,17.044836,45.191821,3.863186,1
7.585666,190.948419,29384.991651,5.805154,345.296677,533.317127,19.032516,84.749677,3.649986,1
8.051726,203.244087,15663.736012,7.172085,334.28314,525.40882,13.741388,76.233218,2.627877,1
7.846464,194.405807,32872.955111,4.485183,270.604247,304.368662,17.325009,67.020962,3.751631,1
7.680252,189.441437,43756.234965,5.357937,314.83478,324.774996,15.518184,66.159889,3.553688,1
8.137555,223.259918,12853.238111,5.769394,320.069783,438.331811,14.724973,69.525317,4.03801,1
6.741014,196.095395,26444.248419,9.56265,402.951764,448.368281,15.692913,47.84386,3.505672,1
7.057168,213.59633,16914.110999,6.206621,336.139642,347.093692,16.957837,61.311592,3.355628,1
6.017732,192.074213,19377.626463,6.2093,313.441619,516.447023,16.999202,64.002012,3.710921,1
7.023657,200.940083,30466.616476,6.297878,345.192865,482.905407,18.403493,60.873846,3.996162,1
7.496224,173.87869,14609.469505,7.0741,333.775777,467.303541,10.602829,41.796056,4.930499,1
8.94615,174.073824,37942.08384,4.202965,338.363496,526.129667,17.0149,65.870897,3.533695,1
7.558876,168.340993,26939.997904,4.908602,288.971536,473.27287,8.680284,60.494255,4.083921,1
6.156255,213.535324,24864.84285,4.481869,300.800373,397.246005,12.775298,67.380583,4.845569,1
7.054733,209.385189,23573.328056,7.198673,296.883684,448.658693,6.993822,32.350208,2.801873,1
6.315823,219.601152,11626.380335,6.715198,314.946773,399.978102,11.680206,75.632011,4.303536,1
6.763396,171.591885,18101.693691,6.572937,312.5436,534.032007,11.130048,60.745714,4.05418,1
7.246387,161.960522,40686.472545,4.8269,304.77674,487.064774,18.60397,64.964356,3.787787,1
6.953996,227.133417,11553.098444,7.354002,334.001699,451.649527,14.206017,82.75753,4.024886,1
5.530821,199.917821,19410.089789,6.294937,318.370451,354.554809,18.590874,57.601665,3.495558,1
7.330801,178.025135,34544.77852,7.261949,295.253914,458.037907,18.179546,71.402667,3.36575,1
5.481164,159.103344,18326.174768,6.798807,363.297818,302.565913,12.573649,52.488797,4.568634,1
6.391572,145.826835,17383.188786,7.193771,332.366387,391.320623,13.288173,73.200912,3.630814,1
7.843239,136.510674,30228.895701,4.795792,240.052485,391.971179,12.560965,74.661105,3.740194,1
3.960059,247.954864,10127.222499,7.834619,304.862625,544.004227,13.754687,51.107311,3.55441,1
7.720153,190.473729,20563.005865,7.981501,335.86943,653.660268,18.937485,80.51707,4.444307,1
5.670626,183.086287,24149.653125,6.829573,367.921893,310.268286,13.417739,74.414013,4.889298,1
9.580841,224.965155,13111.627639,9.091592,315.690232,301.569403,12.276939,61.854014,5.241973,1
5.750382,231.740913,54807.693496,7.042854,284.75222,421.935532,13.828906,71.152592,3.145136,1
8.353105,165.633324,19541.832858,6.350954,352.518156,487.236175,18.047692,45.988015,3.991327,1
7.677433,225.942918,18682.326707,9.27066,332.487288,334.264427,8.888382,82.92063,2.869033,1
6.685608,189.190559,27540.440018,5.874706,248.129932,306.849185,12.665476,74.104618,4.35775,1
5.831944,209.692735,19429.900163,6.956053,333.775777,390.579108,17.105264,64.088108,3.371846,1
7.734936,273.541327,40614.681048,5.968938,254.27022,436.800227,10.510395,72.223133,3.673688,1
6.730738,244.193305,5767.647056,9.929903,333.775777,340.306686,15.972905,88.220316,4.09259,1
7.459028,176.857908,23113.207044,8.225287,296.884913,399.901897,10.99372,75.728166,2.249605,1
6.864982,193.340087,14585.632574,7.090582,319.0618,333.487934,13.355951,51.691184,3.65169,1
6.031348,196.223082,16116.765452,6.153437,352.542507,335.455825,13.328085,56.376244,3.646498,1
7.062991,212.530966,14087.485853,6.841389,364.387433,337.846627,9.141806,73.854193,3.590121,1
6.430196,215.614523,18060.177447,8.312496,377.741371,325.228386,13.346137,68.639402,3.828634,1
5.776627,148.031935,17390.414647,5.85581,333.775777,405.693116,14.08146,67.706119,3.198847,1
7.521876,192.75477,25411.405867,7.666243,325.582613,453.908112,10.843359,62.135674,3.866859,1
7.643933,227.569891,14028.107443,9.560571,340.575514,479.970866,16.602199,62.919009,3.913387,1
6.931033,201.426443,19461.997553,8.122412,328.262961,384.244124,17.421038,53.424967,3.373058,1
7.104197,177.32664,25597.32332,9.864635,331.159181,314.021366,12.661264,74.791761,4.434011,1
7.455022,182.2378,17433.520674,8.336386,333.775777,293.736862,13.359914,58.492264,3.913808,1
6.697011,197.270678,22543.197659,6.232371,324.90553,389.945594,8.571843,77.125074,4.606052,1
6.152583,196.76082,8862.379086,7.823281,329.614415,442.20987,16.647672,60.835757,3.855069,1
6.233403,135.389504,30284.125083,5.740154,265.394962,389.917105,18.07651,67.301089,3.204007,1
6.980127,201.160705,10218.524654,7.984769,373.71341,456.601228,12.756403,62.362116,3.171653,1
7.003099,155.739456,30580.577985,4.407932,334.457564,425.396635,14.450135,77.933995,4.602572,1
8.489483,175.843707,33316.001881,6.85386,302.545614,393.661717,7.507661,71.475589,5.132062,1
8.920909,188.56301,15180.521669,7.800029,325.107532,406.597956,19.293848,68.551985,2.071662,1
6.639974,166.054758,30580.101441,5.226666,311.124175,444.258706,16.276013,52.332306,3.864567,1
6.971544,214.190248,15368.024287,6.935447,333.775777,389.231066,12.31221,62.671956,4.801811,1
7.170446,190.054493,19819.444665,7.95772,339.901409,373.933411,17.781661,85.169051,3.815407,1
6.601292,208.936056,20127.253878,7.906022,354.154349,474.51654,11.034724,54.329505,4.079504,1
8.583755,168.439823,27027.054993,5.17058,333.775777,486.507736,9.399044,51.499192,3.309714,1
6.846989,208.203365,20288.393893,5.549115,297.986133,412.273856,14.753861,61.66068,3.279286,1
7.592058,202.913934,31644.927611,9.900309,319.379172,502.981692,15.412903,96.310213,3.165974,1
6.97667,212.798409,25992.351083,6.853603,389.459392,476.788883,15.146804,45.892692,4.452671,1
7.635286,176.119933,34566.676398,6.308478,313.023067,543.716034,16.693617,66.161454,4.50256,1
5.267718,212.317808,22805.278832,5.631974,340.772891,495.885041,15.30612,73.746107,4.305922,1
6.541064,124.065447,32814.018777,7.01463,357.48268,528.916595,16.062171,52.091496,4.180531,1
8.01128,204.576695,15677.55379,7.185874,333.889391,520.562679,14.391058,76.618696,2.51361,1
7.40004,237.198707,23100.10244,6.678865,315.345412,504.92588,12.406324,82.867021,4.075758,1
5.624396,171.841988,13598.131241,8.055788,366.168322,550.821043,14.114815,72.313059,4.219484,1
7.201847,220.809526,12797.771266,7.935647,344.493362,358.419697,13.513713,82.108117,3.112385,1
6.647262,224.384154,13585.468903,7.308019,350.800494,454.005534,10.757564,64.909201,4.742188,1
8.49671,181.628558,32128.933085,8.012948,333.775777,564.199806,12.980197,72.831145,3.889171,1
6.641422,185.494815,18048.388827,6.778407,301.664713,344.015304,13.738244,59.509428,3.29571,1
7.510741,174.778722,15736.872338,7.083395,323.84879,333.83431,12.661917,71.828483,3.348497,1
6.325143,189.993323,22481.461794,8.443396,342.83197,470.201677,14.823085,70.747558,4.043777,1
7.828369,225.234292,25142.244521,6.490308,326.68596,488.400703,13.151954,62.195878,4.138473,1
6.954415,198.671874,16355.057004,8.090963,322.425811,373.018561,18.287477,68.326691,3.655538,1
7.249016,239.358361,6962.790578,9.14024,388.722569,425.433525,11.065109,65.703736,3.836481,1
5.757354,183.440355,13585.388272,7.213281,368.972158,420.4615,14.700142,50.137848,4.858038,1
6.390215,241.958245,31399.326797,6.994806,312.22141,489.928443,13.876206,79.980347,3.804254,1
7.443302,178.12715,20281.867731,6.615297,359.859784,372.971836,11.721893,58.590294,3.427907,1
7.317114,229.475346,35404.696873,7.158904,373.025569,381.107839,11.383431,53.543428,3.206717,1
7.853053,200.700654,32585.947049,8.934353,328.709012,375.921898,12.827411,51.873433,3.354565,1
7.080795,232.846791,15412.738934,7.74119,379.612889,378.241864,14.10068,51.489779,4.057804,1
8.125268,267.459876,28506.784352,6.69246,301.576616,393.098784,14.962798,48.869165,3.905814,1
7.053416,201.284964,8464.899301,8.610474,375.253536,364.574719,13.146023,86.234631,3.452906,1
7.578409,209.061885,11603.844083,6.592724,333.473672,423.180916,11.775272,87.655834,3.928522,1
7.081571,159.813342,23699.473497,6.049825,330.962637,371.503661,11.984106,62.333354,3.904257,1
5.195625,192.559083,21784.654502,5.388072,352.815868,352.952556,14.377413,41.104729,4.853518,1
8.024894,163.093353,39537.026306,6.311985,316.398435,398.711204,15.99385,65.89295,4.494222,1
6.712071,179.976301,11597.285665,8.863631,337.833905,352.052044,14.378363,78.177773,3.09701,1
8.735713,217.129148,16554.409538,8.410541,343.13096,455.370315,9.421171,58.40838,3.277608,1
4.638822,161.688042,18080.443557,8.465,366.502397,545.904184,16.356318,89.324875,4.412098,1
5.835336,211.717609,16000.910335,7.224922,352.509121,368.283279,16.360823,72.543751,3.330913,1
6.473756,178.334639,16655.351473,5.462585,330.167532,381.792814,17.209957,75.799736,4.437206,1
6.373886,215.122266,24237.438437,7.344724,333.775777,350.091884,9.993308,63.536069,3.336434,1
9.531334,207.534732,37184.372065,7.781349,250.697327,520.491235,6.039222,76.637249,3.382847,1
6.583421,248.707666,27012.458257,6.108344,317.894384,426.659083,16.936624,77.95365,3.489297,1
6.196299,196.949406,22821.04032,7.520473,336.389044,379.384877,13.319236,50.534541,3.460418,1
5.505109,185.252476,15261.96911,7.167104,380.229214,436.18537,14.224285,64.573857,3.176483,1
7.699971,174.316257,19793.840913,7.924473,410.151359,361.663585,17.973924,62.677373,4.916697,1
6.273112,191.284888,22437.00928,8.24334,381.785107,387.927709,15.434348,63.393982,3.748108,1
6.860814,174.906799,26765.781705,6.591585,340.24453,389.189665,16.938925,53.147835,4.526432,1
6.900421,185.685253,13777.166119,5.409709,348.072869,319.828785,11.828154,63.725319,3.945701,1
5.916846,177.918689,21139.769746,8.888104,324.660432,325.983002,9.644268,72.75003,4.836591,1
9.406096,161.823155,21177.291889,6.237933,327.03933,326.253952,15.870674,51.877588,4.854575,1
7.335296,186.517981,20293.396989,5.284428,313.929636,302.883539,13.975301,65.129372,2.798161,1
7.066681,212.011886,18574.127995,6.848666,309.152982,484.788358,16.627601,62.405843,3.894033,1
6.886217,139.67146,20666.737699,8.373136,308.928801,427.887516,11.594662,77.468873,2.900268,1
5.69434,169.904928,14881.53764,7.944005,381.776353,389.378081,17.39035,52.496329,3.194833,1
9.313172,178.419984,31663.32578,9.34572,329.873682,485.908658,15.269112,84.475397,3.661649,1
6.811823,198.327017,21838.880607,5.162818,333.775777,338.483807,14.50234,53.55983,3.932323,1
7.394403,205.132044,6874.183223,9.417941,338.458749,437.285747,15.228521,60.862983,3.971213,1
7.312335,210.425502,13688.487592,8.298166,380.308491,346.050995,20.585237,64.640852,5.493002,1
7.145112,214.258557,21093.891302,8.041445,361.845108,503.722467,14.030651,78.296542,3.861541,1
7.546747,196.68479,10815.513463,8.148701,326.786318,584.304626,16.629841,64.010363,4.061767,1
8.156814,207.754723,32838.283975,5.445994,263.134364,360.297782,17.839185,65.112661,4.178648,1
6.908647,205.781864,35554.070489,5.071099,207.338725,380.369379,13.195295,66.540586,4.083121,1
7.504159,192.586816,9475.174894,7.588718,341.705302,332.599835,12.575328,40.207136,5.145484,1
6.20944,136.604515,34267.610328,5.753394,314.9392,402.475981,16.824764,66.396293,3.802037,1
7.254673,222.143768,15680.726529,7.902253,322.133446,365.806565,17.272528,88.111898,3.502222,1
7.300063,184.118229,47186.643294,4.917447,306.106475,489.159308,13.853807,62.054246,3.921319,1
6.925687,207.152397,25647.298066,7.283837,352.609798,434.899175,10.330932,71.766719,4.099237,1
7.10395,159.352178,23717.647434,6.90425,283.642282,304.11092,14.783703,67.437193,3.729044,1
7.080795,188.051323,37965.756367,4.983363,333.443234,446.313797,17.16005,62.289376,4.30139,1
7.379613,180.681273,37088.408633,7.451575,272.402158,418.163873,13.603484,42.112278,4.051681,1
6.1508,261.767634,17186.991905,9.297337,365.708212,459.535215,19.28037,77.081231,4.284713,1
7.159408,205.922693,17180.870927,8.413745,388.664842,354.848358,16.546197,61.069687,3.825193,1
7.429291,196.866006,26558.276164,7.175808,315.874972,349.551237,13.971942,60.192216,4.859169,1
8.214226,271.541439,40985.468879,6.159985,314.472469,373.602059,12.555412,73.578102,4.148766,1
6.550752,186.412051,15527.545981,7.001037,355.652402,381.074746,12.255241,65.300579,4.66396,1
5.887596,220.520521,1362.251295,10.788284,391.096464,566.684038,16.344829,57.286291,3.355758,1
6.966262,188.556163,44543.795794,4.140381,254.83777,526.164602,12.539841,68.104548,4.624855,1
7.193111,170.498498,21302.171817,6.645213,359.017549,435.251465,13.335698,60.945416,4.001158,1
7.352844,193.542406,29294.335633,5.891852,255.021486,413.882937,13.092825,81.530576,4.593896,1
4.786134,190.470339,11843.201255,5.970081,337.729784,473.481387,17.981719,60.031156,3.44937,1
7.003578,131.747595,19744.361273,5.544775,357.054567,508.399601,15.185516,69.871331,4.548835,1
7.25748,226.680157,24693.287424,7.614576,331.442151,381.818404,7.793001,47.229587,4.045639,1
6.026047,206.915459,15214.987347,7.126384,319.301766,472.514967,13.63625,70.957089,4.360024,1
6.677499,157.629217,27269.354289,6.849532,330.70561,343.454431,12.129073,41.297309,2.978479,1
7.021546,168.686212,36520.962794,5.99622,295.878725,477.500023,14.356615,75.963174,4.302232,1
5.359617,205.591659,15664.499221,7.832658,346.205792,441.735452,14.950928,75.938345,4.066835,1
6.457619,187.57406,36278.477612,6.862568,276.234213,320.363859,16.300775,91.884752,2.676396,1
8.101817,177.699404,28329.583733,5.897651,308.059914,577.532706,16.743469,73.897085,4.418131,1
7.242797,178.040297,28231.281151,7.890586,383.942376,435.089009,14.000395,72.365677,4.930166,1
5.556389,167.084988,24049.34993,5.716189,365.628279,410.674218,12.387828,93.845696,4.891233,1
7.917753,202.258469,12727.732972,7.71441,336.918585,457.272628,15.295473,58.345959,4.078917,1
7.642893,176.979153,15753.419361,7.908582,333.775777,291.973351,13.16145,80.964589,2.515177,1
7.206432,218.948691,56385.37155,4.656908,247.500694,455.858956,10.038191,70.744294,4.8405,1
5.789906,260.449996,15426.015767,7.724349,314.399002,451.371685,16.80184,82.077568,3.925973,1
7.328403,176.585521,44657.93459,4.305791,303.787375,432.929113,15.491078,55.790542,3.92478,1
7.358282,230.334824,31685.294183,6.682443,333.66998,502.501836,12.947564,64.124559,3.669036,1
8.475271,136.538979,20468.83803,6.893746,291.44715,573.46579,14.96908,66.774389,4.309644,1
5.42854,238.382736,24168.699676,7.443755,346.835687,458.195996,16.142223,67.275569,4.028725,1
6.618303,199.624293,35657.326149,6.388297,300.387891,389.972535,10.386248,73.000088,3.754265,1
6.250317,181.967943,22544.388817,7.640483,319.803797,490.904362,17.199676,84.708596,4.114682,1
6.720908,219.328314,18574.694133,8.166945,392.793092,507.693893,14.76703,60.048579,4.825009,1
7.552952,187.382685,4654.398662,5.351223,446.644059,529.274292,19.992692,41.824573,3.689018,1
5.567844,260.701095,28337.508503,2.527813,307.094594,433.712878,13.827896,68.013052,5.083018,1
7.079662,212.810644,29772.884165,6.432672,282.984664,488.30728,13.798808,52.819016,3.367165,1
6.676508,189.080846,16975.046625,7.06776,327.483748,358.685949,13.755446,74.616045,3.446665,1
6.819148,201.433476,24650.892508,9.04142,333.775777,434.763933,7.225159,48.138369,3.631505,1
8.707373,195.668634,25084.593379,7.29153,390.836754,487.744526,14.665669,80.859533,3.74,1
6.17695,205.017955,22396.808428,7.482418,380.221621,404.881877,10.666374,32.301177,3.825395,1
7.809763,188.448863,24329.703257,7.394426,330.356953,327.208365,15.267998,66.748628,3.822435,1
7.657299,193.439908,9425.400734,8.04255,346.633228,398.375549,14.965318,42.66809,4.646738,1
9.143209,193.295402,39184.938459,8.500111,336.307667,339.370609,13.746777,58.274854,3.966357,1
6.390647,191.638535,15933.278449,5.788603,365.00091,316.59701,17.395406,77.714915,4.213463,1
7.74405,183.857432,24678.076687,8.007499,291.443077,437.606445,9.936063,76.659839,3.350341,1
6.828707,258.576005,16669.170588,6.961338,339.182159,435.201546,13.539159,67.258309,3.53436,1
5.132313,210.691347,30907.339415,5.505288,368.6564,429.047879,13.207442,65.845786,4.598139,1
7.266067,212.867069,11272.982081,8.309532,376.933147,351.596661,16.064744,67.527548,4.935522,1
6.972407,228.406055,22559.738751,7.600293,333.775777,515.618651,15.130649,87.70766,4.448716,1
6.752796,190.801973,12723.756745,8.040499,384.635758,351.125094,15.284489,83.757831,2.872698,1
7.209358,198.45923,22131.653409,6.56407,343.997065,406.050869,11.098671,64.233843,4.239289,1
7.437464,186.313815,28721.356441,6.340654,343.732789,441.850728,15.776964,77.35456,4.440192,1
7.607057,229.746727,9081.759563,8.104413,344.014213,408.370093,14.443513,56.904971,2.918046,1
6.499354,216.504576,19457.928441,8.054721,319.431882,397.501641,17.096344,54.704133,3.684613,1
6.51768,207.498348,16003.426897,7.67075,309.061895,325.991459,13.210234,83.664177,4.538932,1
6.98997,169.674433,13362.129694,6.617933,351.599198,410.953698,16.493583,66.040702,4.883348,1
8.172325,202.65131,24035.316244,7.596213,355.415153,445.521196,13.341555,88.804706,4.310555,1
6.490111,217.539399,28939.429228,6.321884,323.584698,424.439886,16.540084,66.496859,4.544123,1
6.605692,203.467726,13066.28061,6.106067,347.070294,366.423871,15.742142,61.739474,4.113379,1
6.878607,244.972952,26154.669775,7.942773,328.630283,440.744297,15.090142,72.409482,3.726901,1
7.53539,192.940442,12386.536115,7.423312,399.981648,440.5288,10.490874,66.378658,3.348376,1
7.716155,227.455816,29565.727828,7.683555,333.775777,299.577691,10.561564,106.637935,4.560454,1
6.265714,190.368273,26681.926046,6.473856,294.609682,338.467781,13.133521,56.784374,3.857139,1
7.711104,189.889868,8915.362584,8.024307,413.240865,327.21935,9.364589,56.934553,3.71519,1
7.144942,233.763568,24550.294746,6.536727,315.871232,337.167118,16.490338,73.034644,3.449025,1
6.913663,186.385871,27644.6932,6.363246,295.440321,397.831095,12.231063,90.622641,4.537695,1
8.514611,170.342948,33017.80689,7.275751,311.621823,360.87717,15.726474,48.481451,3.773624,1
7.969737,215.442316,23338.228472,7.447609,353.675323,570.522911,12.177321,42.963766,4.140495,1
7.51761,193.575836,32160.409495,7.670891,296.273009,324.038054,18.621215,54.205546,5.5314,1
8.238264,255.158487,40661.43783,7.089367,284.836356,378.442134,13.889001,74.576081,4.010419,1
7.093899,144.497965,16261.848988,6.877334,334.730213,563.572228,18.008945,62.077938,3.429405,1
7.140519,194.53509,32571.319139,5.648216,287.548218,466.848951,14.462105,62.436344,5.329234,1
7.403638,180.385244,32910.9014,7.038076,325.933776,324.784057,13.892213,77.90934,3.682838,1
6.644689,247.245115,14773.007051,6.641452,336.854492,508.581027,14.802094,56.339349,5.196093,1
7.472357,139.045963,22175.560205,7.179142,341.87782,448.848639,13.193979,60.222373,4.199276,1
8.096529,141.772736,4523.866097,10.411795,413.469802,391.847387,16.522943,32.939252,2.764048,1
6.397931,223.96709,11593.451111,7.54344,395.777956,407.612919,12.948119,86.39544,3.415766,1
7.162139,185.578098,39741.070174,5.262282,288.78057,370.879106,15.97265,85.72411,4.788604,1
6.917761,226.127426,35512.460036,6.142113,236.33278,319.666222,11.987281,68.092202,3.906022,1
6.393981,181.184436,24257.624637,7.455034,351.587323,353.183366,12.653619,79.06069,3.434193,1
5.820794,164.881614,17626.057076,6.819601,346.83304,319.620138,13.230738,61.966615,4.064456,1
6.810629,268.110592,18978.884012,6.830414,327.400178,341.846211,19.639157,81.991125,5.188788,1
7.930487,203.186305,10810.044996,8.078642,349.010397,435.945685,16.577058,66.661453,3.613397,1
7.033788,184.289402,31149.540154,5.762111,289.729074,421.669566,14.654839,74.322965,3.381388,1
7.043615,193.046117,10770.407514,6.827139,350.581253,428.037426,13.655561,76.098851,3.37251,1
7.04329,185.737653,12620.885891,7.837423,385.04471,569.847156,15.102025,49.619794,4.127599,1
7.445213,204.631459,25094.534205,5.689504,327.023618,326.512041,13.416197,67.146285,3.601017,1
6.478365,217.481174,14998.280585,7.811617,346.525345,449.212606,16.178751,66.282409,4.201323,1
7.483703,185.554852,16636.947643,8.330637,321.888518,350.920948,12.712373,52.789878,3.130621,1
8.152352,204.649025,35238.882861,6.224992,266.334892,308.234658,12.407625,58.409079,4.262535,1
7.000039,201.265235,20124.537361,7.932753,355.111013,474.646691,10.989935,50.795136,3.877334,1
7.262506,197.319175,16654.581539,7.923753,349.281845,393.49533,22.472482,75.680469,3.423469,1
7.220619,196.524644,27398.984164,6.277066,319.29941,431.018742,17.664643,83.56529,3.668041,1
7.633163,256.762955,14375.328941,8.08711,363.459729,527.861426,11.058279,49.725547,3.840117,1
5.79994,186.863771,35843.866989,5.135216,305.793316,418.703714,7.162424,83.322893,5.016876,1
7.268688,168.909514,40191.292846,4.16096,264.710565,375.193861,12.550631,62.360447,4.120274,1
6.861969,209.148234,16930.972319,6.891253,303.248741,481.510128,17.845377,73.430789,3.799185,1
9.059748,174.385457,33224.328851,7.161447,326.906513,453.829864,14.975939,69.827103,3.7214,1
2.255522,162.229169,16941.480366,8.381667,404.74191,321.583529,18.031105,57.181435,4.73113,1
6.185805,180.763028,17978.986935,8.026092,379.583656,335.295593,11.459734,58.774913,3.661443,1
7.498712,201.960515,16550.373722,8.045932,336.285216,457.482823,11.475975,27.63497,3.386021,1
7.098362,206.162795,27019.557912,7.068235,294.851563,398.132076,17.485784,60.637931,5.279746,1
7.323056,181.277753,36470.58812,5.642004,287.797333,515.963758,14.339266,71.921134,4.387709,1
7.243645,221.655523,6873.975489,9.437532,400.693205,436.886132,11.433601,59.984439,3.808248,1
5.963686,219.685164,12991.699789,8.012068,379.884784,321.824937,8.756164,35.913158,3.870482,1
7.080795,129.959759,8782.091634,7.871282,392.653936,509.160074,15.568824,38.727388,3.727892,1
8.083282,150.52098,27882.926714,8.54198,334.426922,438.7983,12.08384,66.299308,4.314295,1
3.52908,245.57579,26903.254239,4.945841,327.536816,521.736371,14.241201,45.286231,3.713214,1
7.14472,191.875973,7546.519196,7.898135,364.94856,375.880457,9.564271,74.07637,3.723922,1
7.19002,210.031221,22538.503519,8.006206,319.674071,375.788558,6.518195,77.683689,4.022257,1
8.279277,207.438243,21924.327147,7.553969,355.589385,574.151034,15.723033,74.100667,4.19313,1
7.080795,188.612261,18375.605927,7.63816,304.259132,402.783306,11.49499,79.475927,4.171806,1
8.067239,167.732342,39442.847028,8.832859,285.894711,457.916112,8.753015,65.303631,4.579021,1
7.265848,241.687517,29535.499785,8.216349,337.533736,271.663838,10.578558,105.28466,4.547184,1
6.913666,216.456139,22516.406142,6.545368,333.775777,518.908135,15.068562,76.824126,4.902639,1
7.958898,206.4091,37060.289574,8.649848,264.100805,522.867192,14.461589,82.223729,3.03811,1
7.211171,228.502882,12540.519058,7.842596,349.055988,524.804366,13.821515,50.530517,3.203711,1
7.760503,176.40111,31058.089079,7.475253,324.863281,404.945696,17.622045,71.339189,3.721393,1
7.317171,197.212863,6785.474981,8.31145,324.887768,554.253782,13.632382,75.752716,3.526339,1
7.53999,214.011949,20491.710491,5.965611,329.324423,330.826859,13.169746,71.614414,4.382816,1
7.751175,222.628473,18847.730479,7.620183,356.105245,345.383378,13.555155,50.115265,4.760184,1
8.905215,186.081382,39451.020497,7.181208,285.50683,404.386658,15.422135,65.971824,4.283804,1
7.014218,139.00315,20525.52451,7.901313,357.366936,557.874543,13.834681,65.646947,4.589129,1
7.511291,226.974073,27780.4788,7.411733,329.40819,483.675971,10.214251,63.37806,3.981141,1
7.018756,184.197233,12859.666878,6.721285,334.808153,388.389431,15.481916,68.05242,3.558952,1
7.546389,231.32851,13398.372311,6.726533,383.636189,437.383021,11.780529,69.576908,4.316241,1
6.792277,196.825766,13897.474046,6.799609,380.377467,351.078853,13.12149,55.492955,5.639671,1
7.314694,226.729831,18998.030229,7.554329,359.329035,374.093904,14.336143,56.784261,3.559461,1
7.007303,137.668682,8002.385457,5.969064,372.84335,568.441637,11.218692,81.460065,4.320827,1
7.014469,198.208101,16911.157625,6.872404,303.790168,493.27976,14.68161,65.613414,4.099074,1
5.479709,241.066046,11220.364004,7.064998,334.388424,433.306238,14.618953,58.708069,3.160502,1
6.851157,221.775381,15349.022339,6.952732,333.775777,427.364007,15.355663,81.108167,3.12245,1
7.223141,200.012262,34253.497961,6.590187,316.09273,391.46053,16.922522,78.212882,3.823615,1
8.282226,228.321622,29700.295456,7.755719,283.169195,397.519167,15.376708,62.597759,3.214591,1
7.616279,184.042207,21666.791037,7.051702,311.626598,400.475161,15.942705,73.152562,2.605005,1
8.62993,185.468855,26430.345187,8.810133,385.449327,482.037011,17.547923,71.892571,4.590443,1
8.228865,243.715324,30930.540395,8.624194,333.775777,436.128004,11.910035,82.142211,4.473073,1
7.101807,178.612753,20461.026197,6.843887,359.430135,424.485906,11.072217,63.54909,4.478387,1
5.80318,159.286996,7994.868852,6.921329,329.410979,408.701767,13.121294,83.089555,3.808614,1
7.792649,175.141328,29301.447624,5.93338,336.636612,361.193133,19.56928,84.807373,3.550559,1
6.074299,199.769865,13492.864917,6.329983,332.871336,532.186248,15.766868,68.479325,4.038358,1
7.472749,228.380957,31738.212983,6.622223,332.783466,494.81909,16.806472,41.225672,3.824712,1
8.456627,217.664693,16542.041858,5.641599,328.470997,451.824979,11.024847,60.007797,2.569448,1
7.084811,207.498656,27088.622816,7.514918,315.70271,407.788893,16.318653,58.505085,4.774409,1
7.881678,229.889986,17892.318924,5.925946,339.970716,462.817455,15.171665,74.708523,3.286571,1
6.491926,195.77647,19250.12157,7.049894,333.775777,482.781855,13.190415,58.295528,4.836838,1
7.077115,182.689944,39440.223354,8.664062,284.602049,458.353335,8.160081,54.8472,2.125883,1
7.027619,179.482806,25696.478887,7.244445,326.648098,298.717174,10.838983,82.578289,2.360271,1
7.012142,200.142568,18557.806417,6.800493,343.779802,349.275465,16.252106,83.68154,3.321377,1
7.026702,225.218868,15477.170876,7.716564,377.736429,406.455084,14.07019,70.447678,4.434003,1
7.602453,216.920489,31116.03405,6.46749,321.741267,472.124692,12.393337,49.196755,3.606472,1
7.175345,166.275216,25462.465805,7.521357,320.622296,390.739752,11.764935,69.606774,3.925567,1
7.483835,232.046481,25663.027906,5.351862,313.608035,439.90667,16.479703,83.859274,4.150765,1
6.008297,207.414204,25105.075062,6.765772,338.4609,486.928643,10.852831,81.169496,4.28751,1
6.630016,191.787155,16973.357351,6.591871,324.437121,483.396319,18.495277,79.922058,3.066588,1
6.940575,193.476395,37286.307222,8.090459,253.530935,408.633095,17.286977,64.413219,3.905166,1
7.601406,203.720064,11573.678377,8.056066,355.628334,375.816653,8.055815,72.955156,4.485709,1
6.473306,178.338962,17039.254395,6.861941,314.589131,413.600979,14.159725,45.879808,4.458739,1
6.509669,201.188278,13742.326408,7.827853,339.482823,484.174018,12.745051,65.950055,2.936804,1
7.540212,185.909503,20499.09692,6.660916,333.775777,403.144106,13.137623,46.593434,4.782699,1
7.228468,166.725793,28230.148391,8.558407,290.779414,421.974454,18.58808,31.625889,4.414864,1
7.433723,235.143937,15428.76146,5.439374,313.621812,521.052839,16.706246,78.35035,4.510499,1
5.889531,180.42008,20952.299389,6.842502,295.936863,312.29425,13.586741,60.095212,4.046282,1
8.295302,230.612941,23626.071719,6.576658,325.532534,414.975849,11.117094,57.127403,3.459468,1
6.294331,189.144562,20590.283364,8.109692,333.775777,474.658068,15.524726,75.33807,4.43535,1
7.656999,202.144023,37080.277208,8.444413,254.517969,524.993623,17.153038,75.449787,3.103134,1
7.075658,211.123987,18060.341408,6.761251,300.787247,369.945383,13.281989,77.359481,3.23347,1
5.142135,176.540544,5122.596079,8.268538,347.383826,341.466381,12.883501,34.42877,4.018605,1
7.671225,201.777823,15305.359944,6.067338,323.593951,592.23301,16.736544,50.493543,4.864964,1
8.059151,160.454927,35006.228879,7.512495,333.775777,382.157919,12.58108,57.023726,3.78237,1
7.230778,177.757296,20275.88696,6.166971,349.543522,359.926774,13.917939,58.102858,3.875194,1
7.082046,169.755476,22842.592618,6.331005,287.217112,464.916871,15.990831,58.535431,5.464285,1
6.649212,171.42941,24812.092259,9.179653,301.518703,398.004508,10.646567,54.033922,3.626532,1
7.749814,252.704145,15752.690484,8.181708,332.949155,587.114326,7.751271,80.701896,3.735405,1
7.001789,198.105804,21189.075283,5.834063,263.209411,351.000413,15.02242,76.676736,2.617296,1
8.551919,243.633518,48606.146176,5.996568,332.364611,532.604861,16.309329,61.701187,4.475759,1
7.681594,230.662907,35055.720788,7.696292,347.540384,337.726633,16.667431,40.292894,4.802697,1
6.091977,181.262583,27311.755373,7.510608,325.812505,439.25475,13.069557,65.659402,4.514493,1
7.139797,187.705443,32534.132985,5.665423,288.170016,452.927723,15.630572,66.006,4.648791,1
6.435564,161.453196,22476.574743,8.50142,321.981785,497.45814,14.031841,65.983559,3.517818,1
8.084717,221.756135,19948.689346,6.154394,349.021624,307.120562,14.31778,45.897658,4.653072,1
7.169269,184.427972,22632.957414,6.892925,283.404439,351.751709,13.413313,41.211643,5.035554,1
5.937105,150.715685,26647.380718,6.247439,336.477921,589.086085,14.82742,106.668468,4.247881,1
6.303139,184.905532,17135.644701,10.379937,313.588272,431.525523,13.786456,68.555121,4.725445,1
6.443848,206.03385,33348.465696,7.691097,355.162574,493.682364,15.649415,101.085614,3.395274,1
7.525343,194.40444,21063.952391,6.94618,388.858191,585.235827,14.057533,80.156311,4.241814,1
6.507128,214.119959,13979.358474,8.017444,369.803823,470.420622,17.286545,75.736464,3.677456,1
7.056403,144.059823,21220.328171,8.100417,349.485773,426.470784,15.803798,55.421916,3.269109,1
7.644782,200.926397,14332.038913,5.670477,348.752746,431.059949,7.937366,66.542902,4.344281,1
7.132904,228.11043,15551.19889,7.662562,336.606401,396.635133,14.772541,68.470719,3.411603,1
6.726738,195.136231,20114.368023,8.497785,344.855402,372.890323,11.939625,75.347915,4.576316,1
6.535655,208.58501,18495.518215,4.815487,314.628979,369.107099,10.669827,75.352609,4.122955,1
5.653566,143.418674,11019.250688,6.57312,336.831287,467.437666,10.744537,69.27968,3.968572,1
7.610502,203.548735,22861.7642,6.483486,331.58888,407.517671,15.266924,66.182532,3.576092,1
7.97314,232.224199,7266.75401,5.928191,342.845561,285.753135,11.341652,49.498627,4.163193,1
7.277942,208.816686,17195.177966,6.823179,374.679659,353.191022,16.872999,64.815511,4.654303,1
7.039918,179.716933,20107.265997,6.836997,346.795776,372.524682,15.176171,64.996091,4.587409,1
6.410351,191.088649,25831.600601,5.518243,326.272704,476.270347,15.498184,61.769899,4.836323,1
3.805798,196.097339,21833.742283,5.135146,333.775777,419.812317,17.427846,56.380252,4.75845,1
6.586232,201.412545,37324.068341,8.290188,267.474927,388.554105,5.829542,64.183791,4.069265,1
8.433527,235.638722,38888.756449,7.858913,311.272583,469.895347,14.858377,64.124204,3.987333,1
7.044252,203.333216,20208.744552,5.315752,340.002314,536.176591,18.973093,72.484165,4.87511,1
7.10854,141.579105,30574.374851,3.326965,294.233426,345.662291,14.999465,62.746804,2.932198,1
7.26149,229.824938,12622.641799,7.367834,342.676228,351.158413,15.213894,69.382019,4.357872,1
8.858759,220.183346,47479.798923,8.286125,288.668718,534.707892,10.538987,70.965579,3.116743,1
6.340151,185.420501,27570.537265,8.232388,298.939746,340.206104,13.469494,81.305571,4.086996,1
7.379483,161.021613,22559.057281,7.693185,308.608442,416.071279,14.468879,62.673252,5.053529,1
6.829234,167.606223,15437.897231,6.963829,332.179628,585.708454,17.160922,58.032475,3.364778,1
7.080795,200.747736,25702.673593,7.64945,331.795558,311.603031,15.813695,51.651251,3.424047,1
7.452916,273.362375,29066.047918,7.005884,328.347644,328.514692,15.723943,65.564296,4.202741,1
7.632952,230.432375,21687.274079,8.542749,384.549497,406.62277,15.429848,76.253529,4.177927,1
7.265643,182.716494,13704.373357,7.519693,339.407411,417.589431,17.600267,76.356407,4.520419,1
7.89403,158.508549,8987.525266,7.12017,350.728738,523.103423,15.494983,38.885012,3.914066,1
7.763133,224.750729,35056.062377,7.681108,340.763338,333.986094,15.459937,61.167534,4.816654,1
8.298981,217.225851,20254.357422,7.396372,352.673262,503.045446,16.476533,68.252336,3.664393,1
7.080795,209.07398,20108.722746,7.463451,362.785311,344.383401,11.494202,52.090811,4.393336,1
7.794915,206.981538,19870.67116,7.730649,337.766883,382.286415,7.354429,64.073186,3.643938,1
7.125755,198.98409,19407.840302,5.207288,317.832251,310.399028,18.911565,69.754998,4.359254,1
6.594998,206.534704,34286.939797,6.61757,361.229275,442.759927,8.232355,65.874442,3.767027,1
6.14734,228.267772,22025.133086,8.177392,326.552634,393.814454,13.180554,43.066462,3.631078,1
6.735358,193.459294,34558.613056,7.747512,325.910061,316.381703,18.95369,79.558399,3.153617,1
6.886379,173.23884,30705.298629,7.998776,284.539253,449.729226,10.903085,70.2719,3.595813,1
7.464424,217.299585,19835.78254,7.113296,358.281187,490.679402,8.990935,57.383427,4.316123,1
7.134397,211.780952,19458.543731,6.228206,355.89915,444.019919,15.304615,67.917936,3.557144,1
8.905132,226.526918,21736.977743,10.275305,342.594359,300.334001,17.678123,56.542216,4.586456,1
7.729633,210.88391,12701.785898,5.867261,391.682142,545.261042,15.129697,62.464992,3.752212,1
6.967295,214.150181,12331.490443,6.873784,385.941761,449.225741,15.988128,31.276901,3.485263,1
5.485192,152.460034,17497.969525,6.398054,372.79729,345.19874,12.625749,66.566934,3.751132,1
5.714271,185.430233,8038.953648,7.805389,332.076254,448.873836,12.888274,84.430699,3.890622,1
6.975445,182.073294,13948.330778,7.571503,342.129365,342.410717,16.533438,71.211219,3.867945,1
8.746805,231.059429,40768.818429,6.440266,305.566659,283.63209,13.839723,69.92013,4.215389,1
7.189532,224.556814,29171.544774,8.159541,330.720042,387.800668,13.581081,46.684091,4.481559,1
9.39422,177.555686,48438.021458,8.928879,321.122937,408.945312,14.192352,72.495091,3.073438,1
6.922465,196.05825,32275.446152,8.740293,273.991299,552.784485,18.016838,63.598202,3.960189,1
7.113441,151.091251,25054.287152,6.677153,293.727054,328.848136,11.569086,62.20501,3.670833,1
6.327206,206.495868,15150.677138,7.639346,322.771829,432.685838,13.883468,53.261395,4.249183,1
7.51957,174.402525,19105.442491,8.077412,336.8577,417.811026,12.766499,66.739653,4.259141,1
5.827032,195.851831,38166.625434,7.919604,326.899326,413.245969,14.646866,70.982212,4.201212,1
7.801232,214.18882,35399.909862,7.867763,364.439449,371.590001,12.785461,37.483684,4.361425,1
7.504444,194.418146,20147.058326,7.645192,270.85681,482.393671,16.470905,92.977393,4.44103,1
7.052174,191.071649,25656.008896,7.959023,340.597099,365.858237,11.517908,65.350693,4.250294,1
6.937013,181.54701,25603.535749,6.925405,342.265189,441.139287,13.647044,70.828142,4.355304,1
7.188829,178.143667,20288.945125,6.722377,349.731621,366.16896,11.811641,60.421234,3.56241,1
5.835425,196.764674,25874.746893,8.232781,332.793685,505.090265,17.592283,86.075627,4.887742,1
7.89297,215.318995,27346.349245,7.259695,332.834199,341.401482,12.530266,47.36515,4.599099,1
7.122368,201.20401,12626.933233,6.008161,337.092851,365.081251,14.391816,63.687512,4.405741,1
6.291464,199.424143,16652.796633,6.382426,348.401834,464.605423,15.006498,59.667479,2.87495,1
6.747727,176.84255,32014.728808,5.731634,333.775777,424.967716,13.073953,53.070185,4.775345,1
7.911627,187.110233,21381.056913,6.900859,333.406613,424.004024,14.821644,57.286121,3.008338,1
7.733457,223.928025,14753.523615,7.243917,368.041085,492.585778,11.003175,58.281554,4.600152,1
7.601612,218.825129,18840.938443,6.446782,298.683288,419.973573,17.042324,53.737818,3.899574,1
8.595331,206.576879,25145.140388,9.105094,306.820792,368.740061,16.516143,84.014599,2.824215,1
5.691986,158.193003,35916.04423,5.436883,333.775777,462.240036,6.765359,60.359446,3.818776,1
6.649703,234.602796,17824.823245,5.32488,339.392345,409.171486,13.665097,57.284567,3.042425,1
7.014298,218.479901,22535.177818,7.292729,331.205165,382.177997,14.839483,63.549249,4.039811,1
6.385243,216.529518,21995.354812,8.230066,327.955923,385.683605,12.130127,52.022411,4.024821,1
7.13414,173.402155,30408.250391,6.543577,295.575654,476.239808,13.502575,74.538031,5.501057,1
7.135001,224.474812,9590.218187,5.506492,346.958971,535.88696,13.503673,59.231154,5.286085,1
6.681611,191.423605,22474.640959,7.371043,333.775777,460.8961,15.472419,61.773733,4.698345,1
5.433024,132.861677,7923.017411,6.734322,272.665668,448.706058,17.215077,77.378186,4.646143,1
7.032746,221.225874,15082.742079,7.306443,352.887574,468.692489,15.81758,103.699271,4.33102,1
6.228378,211.320762,26072.131367,9.694845,307.232686,466.717236,13.677595,59.687378,6.487576,1
6.484841,221.530998,11588.1986,4.3658,352.173635,410.324685,11.355052,85.794927,4.519305,1
7.786861,206.186744,25209.308501,6.512663,316.809015,485.23692,13.068308,66.138571,4.942083,1
5.53454,197.367289,14460.941616,7.521144,286.854533,494.056527,14.205521,89.579956,4.981853,1
9.963125,183.782254,26402.349724,9.352573,334.622185,475.533882,13.525592,71.052477,4.006411,1
7.14633,163.301365,13401.152185,7.015141,328.756015,361.676309,16.493788,63.655368,4.346026,1
7.757827,182.120234,33141.163572,7.025116,325.579898,527.130292,16.876686,42.078682,3.969579,1
9.179897,221.136259,32250.273963,12.183141,327.177888,381.315724,11.481243,56.749605,3.660304,1
7.229136,220.319649,17213.680103,8.315789,334.906418,400.586787,16.726927,57.214644,4.817477,1
4.068947,172.832047,17339.514902,3.900819,401.017856,379.671329,11.777917,65.312708,3.26213,1
7.222452,192.979416,19291.296907,7.312363,333.775777,283.898723,14.656675,65.938085,3.841795,1
6.495737,188.506632,16369.349063,6.546446,295.461791,383.092811,19.088191,80.309497,4.007428,1
8.843577,201.959088,35240.653407,8.86453,336.863487,377.89464,10.921854,69.013204,3.779266,1
7.49736,201.434455,25120.39269,5.698686,324.286586,432.030152,13.109543,79.72214,3.733306,1
5.91095,175.608057,13694.621151,6.870613,336.494371,601.923411,12.781063,40.358421,3.777138,1
7.080795,167.61883,30283.321733,10.182757,326.828817,445.913639,10.759174,94.194111,3.428088,1
8.405503,212.937284,34228.123898,9.637142,279.823289,350.543064,16.120573,73.520057,4.542424,1
6.469817,170.480975,26607.371464,7.313032,336.824682,582.026132,14.588249,106.443923,4.532051,1
7.231176,203.956445,23103.758213,9.586086,333.706851,459.653664,14.678542,84.317255,3.409416,1
6.551328,216.086187,14607.46354,6.351162,319.767228,551.981217,11.788699,70.796306,3.620522,1
6.542604,212.489495,18999.868722,7.402445,342.510283,260.134626,14.06464,53.08488,3.29764,1
6.824111,185.946955,28208.479305,8.562156,326.533373,318.32892,11.91858,40.529996,2.727898,1
6.659475,173.98709,16187.387714,5.588733,302.089001,357.862759,11.950735,63.779902,4.730802,1
4.924188,179.476879,18675.5185,5.692277,349.870344,535.873832,13.953991,67.852154,4.028382,1
6.332949,195.853555,18152.15187,8.58471,383.477722,257.96917,14.046402,54.192456,3.41317,1
7.044587,199.1699,30429.683147,7.519572,318.076649,485.471882,12.650062,70.997623,3.360293,1
7.347706,187.5149,24355.465478,9.667856,317.719338,470.030871,18.585397,75.465096,3.819396,1
5.013724,209.368884,11182.558451,6.412108,376.587821,559.897841,14.910412,44.094314,3.256489,1
6.805187,212.319467,19235.858227,7.767781,331.564228,326.365878,13.059831,67.384682,4.642684,1
6.655148,185.314877,20872.626153,7.835569,331.207974,365.841706,14.929877,80.076055,5.057138,1
6.508045,199.774329,27337.817332,6.708753,362.945113,547.053499,13.531529,75.000265,3.034798,1
8.145002,239.667619,28217.624461,7.847987,286.347284,532.470283,11.76245,35.362249,3.224244,1
5.404207,147.854247,18399.739694,6.902211,350.704142,356.319708,17.122195,76.276097,4.532898,1
5.957727,154.544814,17430.849095,6.977081,365.877084,313.458475,15.077842,60.59603,3.7963,1
6.340394,159.913286,17504.028198,6.612786,381.15331,378.726185,17.332466,66.981238,4.256837,1
7.164327,217.339097,18984.611286,4.576207,345.311987,393.213446,13.222052,73.813602,2.595825,1
7.412641,197.277125,26560.640878,5.894927,307.292208,360.768973,16.04201,32.993912,4.886945,1
6.045415,224.52906,17153.890855,5.075398,371.820682,606.737227,20.069013,70.128985,3.210993,1
7.132328,191.191959,19482.930728,6.236596,296.745619,365.44412,15.276826,33.884837,2.539012,1
7.649092,183.226183,21448.599509,6.88866,338.211917,429.015473,14.102656,68.309899,5.087142,1
6.377511,185.726473,33335.437636,5.741637,363.069421,507.897016,14.390042,58.242471,3.505934,1
7.919304,191.966614,23932.218662,7.346504,371.627461,451.342078,14.962806,62.243929,4.857196,1
8.762463,199.308438,27048.247091,6.243633,317.169082,508.955104,9.332749,49.935814,3.742423,1
7.186852,207.265062,12105.163438,5.064032,428.812809,498.147415,14.478161,55.757602,4.445969,1
5.404277,151.269027,19190.310835,11.887992,390.292573,389.478189,10.670943,69.391476,4.563968,1
10.421689,198.963617,32065.044159,9.497168,333.362379,424.585345,11.077838,83.706038,3.678068,1
6.970508,194.369656,27357.397299,7.276375,297.382827,326.719491,11.692705,56.237472,3.51532,1
7.561896,232.264417,23513.746592,5.628884,275.591234,470.684868,13.367244,55.944949,3.198237,1
6.779741,203.283735,13755.407599,9.433667,335.079942,341.0301,20.461053,68.450014,4.738459,1
4.809687,223.872468,19690.429546,5.28227,346.490626,329.741196,11.524188,69.517209,4.274041,1
6.417448,172.478863,12265.418865,7.661171,398.079216,375.299032,16.301998,61.13063,3.222959,1
6.717746,218.046001,17613.44131,6.956573,351.274629,478.981584,15.906562,68.050312,4.115763,1
5.488819,147.551292,19802.03444,6.811617,416.905579,397.667207,17.501657,62.777419,2.847632,1
8.974583,166.880165,15922.168671,10.212452,316.964948,423.099366,9.944905,54.204965,4.223213,1
7.728191,213.306964,29838.216134,6.541887,348.321653,363.558385,13.83967,81.268158,3.723724,1
7.402451,229.241527,17621.334213,5.020533,276.688407,550.578385,14.2393,67.330483,3.696517,1
5.773201,202.409133,15247.135859,5.836936,384.043155,511.798966,17.20969,71.716809,3.481868,1
7.080795,218.730142,18479.195881,5.695023,327.43831,367.76867,7.06654,63.623895,3.703311,1
5.319671,155.829484,18373.714707,6.042253,404.727708,302.955648,12.331812,56.766542,3.851661,1
5.379425,266.495758,28378.502849,4.384371,311.539063,433.536054,12.274685,68.515954,4.901352,1
6.352958,187.189223,27741.667403,6.883132,317.215921,324.807875,11.7811,70.124334,3.27598,1
7.535676,240.437348,24542.841685,4.191705,321.001724,338.37222,16.439757,68.501495,3.295959,1
8.373826,215.453722,16492.564126,8.719566,325.739234,520.909764,10.607335,44.555801,4.695947,1
7.080795,145.753481,17812.315532,8.095461,387.467739,495.395362,15.329372,61.789182,3.850225,1
6.620404,187.864516,29229.113114,7.35283,310.178223,313.027985,10.089529,71.39651,3.613783,1
6.679301,149.381297,21608.731198,7.077473,336.561841,415.879125,14.278043,30.780388,3.621463,1
5.812137,187.332234,25887.781249,6.097285,328.136893,467.724551,14.059433,52.679939,4.62921,1
5.125615,207.878485,22796.515347,4.939142,327.839041,451.938078,15.148353,73.820276,4.19881,1
7.91351,233.457352,14770.987014,7.568842,332.219794,558.609335,16.140343,54.695762,4.171873,1
6.84664,199.372093,13724.800305,7.518031,343.153522,414.873992,13.656731,57.800821,2.965113,1
6.935341,180.51488,24818.915412,5.302919,326.109398,391.007277,11.117961,50.722863,4.85736,1
7.234285,193.298628,31641.646671,7.081912,328.102044,484.842939,13.09224,90.152603,3.204126,1
6.233782,153.296687,11866.905981,8.814745,356.73623,390.075808,11.41069,49.464828,5.31803,1
8.53493,211.073007,13677.087386,5.896117,345.7353,455.934631,19.303214,72.995117,4.441653,1
5.225214,201.482015,28424.44636,2.097274,321.386909,450.420677,12.326812,70.264213,3.861003,1
8.148152,199.774587,32633.557408,9.256547,331.97402,418.771904,19.494635,81.051071,3.879414,1
7.028191,186.436409,13395.882156,7.479354,376.894426,453.457758,12.607185,64.191569,4.269292,1
6.912728,191.672315,19469.525931,6.386283,339.701239,458.93146,11.533181,83.257395,4.381483,1
7.661614,152.437855,21500.072558,10.069067,343.065196,454.511313,13.946631,42.578543,3.436916,1
9.5402,228.955807,31650.804163,11.37401,318.670648,491.473507,17.317646,57.378434,3.424262,1
5.694806,206.100738,27366.219106,7.268897,352.608584,427.418794,14.19705,70.316162,3.878251,1
7.202601,237.306328,31137.752663,6.83574,301.559402,403.122398,17.789535,61.288129,4.517128,1
7.47317,215.884507,21763.68544,6.298698,319.09783,354.817418,14.743913,53.529483,3.405835,1
4.813016,171.889943,24040.804532,4.024307,354.200445,320.586743,9.967888,83.99541,5.128906,1
8.815744,212.648427,15957.335416,7.773888,313.161701,384.409339,11.691301,57.30995,5.662366,1
8.541165,211.17482,15908.117697,6.361473,314.610914,408.240235,14.4567,113.606968,3.213701,1
7.2076,182.098393,19285.378948,7.567774,319.613535,330.116213,13.460319,67.955872,5.848781,1
5.879018,189.405369,13046.925846,6.044909,349.45486,386.305334,15.654724,55.282126,4.294242,1
7.449075,187.484879,21088.720358,9.609663,379.810924,519.251448,12.576429,83.488474,3.908702,1
7.762855,157.296132,22946.418159,7.991703,342.113383,456.943792,14.15358,68.522378,3.837425,1
6.814889,175.309954,22996.238156,4.445832,330.825704,351.208472,13.719183,62.940636,4.370422,1
9.519488,216.052756,23977.011944,8.601277,355.332697,467.416268,13.734709,91.62857,3.018295,1
6.915709,169.380004,19073.232888,8.819809,333.07405,407.999485,16.531191,77.655278,2.885147,1
7.589939,183.907658,14840.852965,8.130546,350.026468,294.232908,14.553321,55.670235,3.882237,1
7.571829,192.563533,25418.515757,6.445794,290.420876,494.275763,12.465355,75.70338,4.382126,1
7.113239,211.330261,23562.294309,4.542799,354.806535,423.094668,9.085774,57.185823,2.348461,1
5.816274,146.838875,13615.386828,8.088392,369.957447,411.732184,11.228296,69.747889,3.056551,1
6.733107,164.485409,21176.807605,7.142934,380.233268,433.241622,15.466877,74.987993,3.044417,1
8.823119,134.304917,22187.585887,9.596526,297.138883,387.644841,14.927664,74.228418,4.205499,1
8.318289,191.871847,29320.656045,7.942328,308.034444,496.821249,16.17102,91.952086,3.473382,1
6.735181,102.948647,19733.738306,3.538008,356.625667,469.904964,15.475818,78.344798,4.731978,1
7.084579,188.271347,20822.889332,9.722381,320.931898,380.104811,15.050047,63.380537,5.032126,1
8.499029,222.208699,13685.654279,7.718336,350.158289,456.670361,16.571413,72.509157,3.384691,1
7.031068,200.795327,17742.202418,7.652147,377.790606,523.654759,14.763189,63.050112,3.795261,1
8.220372,165.766207,18301.215963,10.738655,314.940886,390.434593,18.60336,53.94621,4.18126,1
7.929553,213.050224,21394.197544,6.386418,265.998815,452.830467,12.246665,72.971696,4.353534,1
8.157937,191.015663,29340.201657,6.380907,325.933135,546.631368,13.189819,86.113858,3.974401,1
6.354141,179.487965,19088.989632,6.853889,380.699191,402.06264,12.625044,75.510753,3.097607,1
9.095407,210.079704,20582.081107,9.950602,331.354966,467.863104,19.878061,57.357418,4.53121,1
5.073667,129.294254,14896.14954,8.911155,392.958764,337.872614,15.083469,64.171811,4.573259,1
8.432771,189.028843,20579.173897,3.80588,353.375302,399.754697,11.706225,69.076594,3.075351,1
8.896523,166.376513,15618.168047,6.229934,372.079946,380.815039,12.932747,36.65013,4.70407,1
8.001497,199.623488,15197.929918,7.015009,408.40468,331.846459,15.066978,69.662749,3.745593,1
9.398596,210.226932,25202.60052,6.934456,320.097558,403.678379,17.699943,84.81514,3.600656,1
5.782531,203.237499,22604.787756,6.452361,361.994372,410.618455,18.085796,83.05235,4.25218,1
7.323706,204.329191,16819.9916,7.915175,333.775777,522.595601,11.664439,57.484587,4.996189,1
6.049218,195.88169,27990.560404,8.326602,320.348992,405.335175,20.150802,69.620809,3.464166,1
6.853556,192.525552,14312.82845,5.663796,364.729866,470.233709,18.100853,64.439909,4.602883,1
6.419236,147.08186,18396.536197,9.418894,380.270827,357.14415,15.406511,79.47775,5.268369,1
7.20292,191.490827,26374.276557,8.907549,333.775777,504.033132,13.057603,73.539469,4.216416,1
1.191627,178.914035,16904.84181,9.189087,423.393044,317.248272,12.445273,60.054979,4.342452,1
7.442811,230.297574,13314.76571,7.212869,341.875994,531.235861,13.524869,58.818664,4.966186,1
7.156841,218.786718,17177.843747,8.348202,393.128196,370.167418,16.45444,48.499594,3.607745,1
9.005273,188.945307,16680.239494,9.4349,372.97411,405.01301,8.590009,55.794478,3.941101,1
8.715365,246.802069,22641.119978,4.783632,301.820004,379.168649,16.932639,76.253761,4.075757,1
7.807391,217.686971,18870.45163,6.035295,283.420222,418.208086,17.486902,53.401016,3.972129,1
6.816264,176.826662,25598.275954,8.153058,365.539234,337.313019,14.533123,66.296719,4.263433,1
7.373457,153.93717,27151.160303,9.489649,375.209927,381.289466,13.875175,57.503909,3.987714,1
5.231981,146.73919,13614.887448,8.781755,392.413607,518.21686,13.024936,91.56067,4.248428,1
5.991243,205.789416,35402.247266,10.993164,251.731116,430.322231,13.62428,51.629543,3.403404,1
6.502354,210.868818,29259.953474,3.956918,281.424583,391.191757,16.444099,47.426671,4.175528,1
6.627014,214.950204,18478.774042,7.493805,372.550166,518.580179,15.197721,49.092969,5.206769,1
6.805306,230.240404,16696.343389,7.555346,338.52493,483.366511,9.919775,76.94417,3.771488,1
7.983055,215.883353,18443.739034,7.644453,364.32331,302.296895,10.745287,79.290102,3.440349,1
8.173923,178.982012,30582.233728,6.934184,333.775777,331.872179,16.183253,76.947289,4.57647,1
8.533772,209.043928,23850.771167,7.793746,345.516416,509.381119,11.998465,63.208148,3.008632,1
6.465714,222.786052,15474.8632,7.57926,326.736813,381.53734,12.219091,58.279988,5.320423,1
6.804212,211.102757,24416.283421,6.195435,291.385201,479.553771,13.763613,51.346201,5.073371,1
6.708099,195.198106,26400.519194,7.254076,324.543456,530.010055,14.703891,71.008962,3.692142,1
7.028029,200.553294,17033.935455,7.066465,367.332155,430.094767,10.722475,48.912699,4.241289,1
8.160718,200.302844,17387.26925,6.871777,291.911177,367.383062,12.183314,90.347005,5.097167,1
8.232058,193.181478,23241.630743,7.294849,338.029164,331.809536,12.741289,62.299575,3.559778,1
7.469981,224.873007,23104.172566,9.168179,327.502527,459.694705,13.759033,83.930615,3.773477,1
7.485993,241.080883,25704.945997,4.608734,378.593014,445.264207,15.732646,62.007091,4.440655,1
7.827462,203.857536,20108.352314,8.375338,351.965659,346.880909,18.329644,54.214051,4.654619,1
6.855432,178.111935,23063.006804,7.525303,319.352241,402.41544,14.445136,56.187578,3.829445,1
7.18678,234.060564,15582.442344,6.95924,340.994958,395.717052,14.989065,76.61388,3.468502,1
7.489496,144.240861,11810.700184,6.962094,346.844516,426.906434,18.974026,47.237175,3.173962,1
6.184942,169.649645,28704.387188,6.357748,347.213133,470.835481,12.271991,74.63498,4.524317,1
6.981515,187.060718,11609.505384,7.284219,334.963249,545.794329,11.125561,64.556486,3.03406,1
6.45908,198.391388,30254.729968,9.011322,300.259779,437.685974,13.082045,65.972837,4.275326,1
6.578886,199.451289,22383.790305,7.239358,378.925745,479.852534,7.808513,97.566639,4.174276,1
7.812043,235.887352,34461.037498,5.961469,349.708818,334.235609,12.172872,50.474205,4.346443,1
7.164753,174.389627,14214.841012,8.995131,372.887115,417.12796,11.943848,68.900955,2.845033,1
7.537399,228.893639,31105.310036,5.577784,285.715768,423.785656,15.811568,51.725639,4.430372,1
8.499861,190.587532,21758.153218,11.680043,329.761641,373.220929,16.945049,48.788684,5.003518,1
8.105126,195.286316,19167.523948,10.602836,337.95431,406.83839,10.429564,67.592603,5.273847,1
6.669977,216.691883,26876.302368,3.531617,291.14509,456.805714,11.151191,61.330865,3.791621,1
4.474459,176.507064,20863.477886,7.324571,331.614316,444.327545,14.975668,81.093264,5.116599,1
7.597423,185.907985,21066.960417,7.867374,377.954875,534.81859,11.75255,84.184837,3.76939,1
6.899997,185.932256,31425.750618,8.268368,325.945929,414.986479,16.30167,69.173027,3.09932,1
7.201932,231.272003,29129.29397,7.673379,368.201184,364.441906,13.170014,60.752677,3.819914,1
7.080795,195.192793,17538.697457,8.139968,382.953706,308.777261,13.335024,80.835096,4.110332,1
6.251372,162.263181,18049.281323,8.580521,333.775777,541.950902,10.037763,63.319605,4.421322,1
7.080795,182.506452,12666.91451,8.654504,342.294894,329.840564,12.699323,66.036705,4.480106,1
5.699395,162.551134,14200.791473,6.479466,348.30539,379.683119,14.184195,79.019339,3.825519,1
5.551809,178.717578,25959.758313,4.650775,351.972817,474.615373,18.35959,68.908074,3.748352,1
5.79386,156.693029,32428.011476,6.260676,318.542896,418.321144,11.021173,56.272651,5.264172,1
9.451634,199.029957,29636.699735,5.276963,326.520859,348.04288,14.644114,61.908156,4.104222,1
7.07626,216.115828,20283.530139,5.514971,287.003069,339.985795,11.196159,60.377964,3.622419,1
6.253599,189.476606,16471.924468,7.123748,343.948733,391.400792,15.071142,81.688757,2.970454,1
7.612913,204.343579,15325.273946,8.492219,366.679774,424.091088,13.814691,67.044543,3.897369,1
6.429141,173.72599,19597.246032,7.461308,319.046268,383.853996,16.212413,74.705531,3.398214,1
6.466219,218.837815,26203.031366,8.965571,342.175927,460.483936,20.728143,51.945242,3.533952,1
9.24746,112.558415,20428.452847,7.873881,322.863049,459.62847,13.028502,55.608201,3.616246,1
6.414796,210.457674,15433.104846,6.99036,320.887718,317.688845,10.796461,60.916833,4.140734,1
6.558116,190.651908,38506.635407,6.643004,316.120491,448.968562,13.994048,59.14223,3.806414,1
6.624315,209.679575,36533.929567,10.000091,284.455865,317.111924,16.66852,67.307209,4.126395,1
5.505549,180.73681,855.750986,7.964934,336.648461,460.450395,11.347578,68.077963,3.668529,1
7.709136,210.280272,34327.745154,5.663837,291.806797,438.083413,14.781253,82.348602,4.015549,1
7.496962,172.493454,12424.86409,9.800886,358.553941,471.518381,13.214884,60.859124,3.121018,1
5.877105,197.688098,19406.66545,8.770462,338.78441,422.585154,17.343688,83.150946,3.507201,1
6.952593,231.354899,27977.606293,6.6492,311.240309,429.588312,20.892701,50.332303,3.230621,1
7.134376,205.152923,17527.162886,7.59016,396.073396,315.751401,13.252805,81.786822,2.987487,1
8.262308,189.75062,12153.900594,8.139737,328.360013,329.903397,12.542599,65.489822,3.283365,1
8.224615,193.581041,40585.886686,5.939592,305.456031,540.928969,15.285159,55.635256,4.132271,1
6.675161,220.861039,14697.251369,8.63663,443.750539,448.145137,15.447599,68.759743,3.914487,1
5.025781,138.884315,22523.858866,8.998357,396.131763,368.86797,9.533478,74.333124,3.490483,1
7.148966,205.693515,21487.210672,7.8695,270.862096,506.32136,11.266643,88.030649,4.55626,1
5.241391,163.333751,14621.654309,8.267339,333.775777,408.999167,14.529332,80.849165,3.748226,1
7.153897,200.040232,26553.947383,7.186096,316.513664,333.681839,17.932742,57.575061,4.804589,1
7.145327,212.002712,24893.076382,6.040838,333.775777,485.557412,14.603213,73.191659,4.202344,1
6.984351,177.236566,13975.222488,6.803662,355.411521,343.842847,16.65917,71.974973,3.69291,1
6.06,269.694498,17699.937689,3.92684,379.016553,474.487016,14.780958,82.809064,4.30412,1
5.801192,156.986622,25386.520932,8.249573,320.168002,514.183006,11.543764,62.49713,4.343217,1
7.545983,211.2473,20006.242582,7.910683,280.719033,511.103112,13.260675,54.797263,3.79122,1
4.21271,139.471031,17412.679787,8.178713,345.259004,400.616137,14.202972,59.460974,3.6447,1
7.426528,182.030377,21611.295023,6.833394,307.103682,431.30823,11.219658,70.986575,3.226313,1
6.258701,216.167763,22549.665852,6.587779,350.376031,412.128808,15.33326,61.338547,4.083364,1
8.719888,186.853356,19478.659683,7.674609,325.26935,312.897809,16.450625,35.212556,3.623729,1
6.73935,134.551176,22520.533875,7.880736,401.387113,399.65922,12.653484,57.145768,3.396582,1
8.26559,243.897727,14299.953898,7.048927,316.747099,483.187428,18.181039,59.890924,3.142473,1
6.787252,182.612388,9941.400214,6.693041,371.549786,513.338774,15.259215,35.243198,3.553677,1
7.995816,186.025186,12660.498535,5.702131,362.747529,567.30038,13.74923,61.527703,2.820774,1
7.033884,187.755655,13757.292919,6.978851,333.775777,342.655808,13.521982,68.056216,4.793222,1
6.994112,156.425974,31154.714181,6.240653,306.376015,464.319699,10.977802,60.229355,3.465261,1
5.920881,156.777373,27204.255024,6.431043,329.189555,349.579812,10.578047,45.616685,2.961592,1
6.579326,212.629685,26409.141076,7.338918,419.359298,470.354757,17.90184,24.886618,4.243002,1
6.232482,172.765892,20115.947849,7.930654,381.939563,392.831032,12.024276,57.76388,4.186743,1
6.700109,181.164009,40813.81381,5.526857,330.620592,547.83446,18.673631,68.585446,3.887637,1
6.905889,201.619238,15905.267529,6.313152,316.176051,379.000787,16.190995,62.251554,3.809269,1
5.964485,212.93694,15632.85914,8.280463,333.775777,507.060686,17.892265,78.601567,2.634196,1
5.064132,188.450061,23023.37625,7.337707,416.588729,490.273703,17.195375,76.895359,4.730507,1
6.507042,176.779109,37244.909722,4.74371,333.775777,437.967941,16.132758,82.83692,4.908696,1
5.565064,169.44075,16300.847699,6.700717,320.017268,386.66895,9.079736,89.364519,3.520662,1
7.164692,190.439327,20469.862308,6.995668,362.033644,395.9075,14.309552,41.215098,4.584214,1
7.205114,199.621479,25376.786125,8.165054,327.54396,466.82672,10.926126,49.49703,4.980359,1
6.650132,183.484544,7989.516446,8.361789,385.108022,375.826488,18.46928,65.709362,5.687944,1
7.080795,191.030877,46962.119491,8.009312,299.631263,556.260002,14.254358,67.190618,3.855793,1
6.913888,220.518772,39183.937103,9.036143,228.291812,388.879202,13.262104,63.334341,4.147406,1
6.176557,209.067147,19217.767866,8.395309,333.775777,420.345932,11.810699,60.778339,5.266272,1
6.680188,197.822433,17248.119421,7.369084,329.956207,328.812648,12.142441,43.956819,3.473759,1
6.542198,176.228879,13863.126384,8.05018,352.539155,397.703656,18.236326,66.437838,2.816819,1
6.14827,207.461547,23382.026144,8.623781,333.775777,369.269317,15.403643,66.453018,3.829016,1
4.961994,177.254222,14673.861022,8.341486,352.840511,445.741072,16.347922,77.285146,4.558302,1
6.649419,196.850052,23463.478917,6.531605,312.189104,445.669538,15.026804,66.548637,3.603904,1
7.287179,190.290727,26635.843195,7.196678,287.733921,373.617722,12.335328,65.476447,4.05817,1
7.608429,223.656388,17858.974501,7.572996,310.925409,438.241085,16.454135,47.679776,3.587585,1
8.29242,223.706705,38227.23894,7.28997,296.871481,434.96147,18.030199,77.54794,5.308012,1
7.541205,217.268586,6874.898909,8.533164,341.34143,391.15961,11.548681,67.391352,3.808917,1
6.156204,170.926851,15946.805945,7.04215,289.731282,370.924739,17.614816,75.134805,4.024036,1
7.006303,174.892029,16465.252838,7.980666,318.590511,369.441782,21.369101,78.649474,3.002513,1
7.770721,197.955504,30578.363609,7.839512,313.561127,313.62771,17.429198,60.290643,3.614952,1
7.717117,228.05201,12878.6599,5.25948,322.825409,378.566856,13.45333,63.801404,3.522385,1
7.302203,219.747358,18988.198435,7.419703,359.2283,360.684132,16.942036,56.932029,3.514088,1
6.279669,207.767475,32840.420257,7.153698,361.705139,503.937889,12.919279,52.241021,5.02028,1
5.605213,173.073248,22741.035962,7.034722,333.775777,521.978952,14.0439,76.133032,3.159247,1
5.212785,170.559882,11284.201168,6.78067,330.82236,357.020871,14.831006,67.620141,2.520405,1
5.59132,168.864821,38624.429398,8.116391,373.04342,448.983109,14.743695,58.908943,3.547426,1
8.350998,223.688295,21391.613053,6.155329,267.632537,427.39512,16.073974,51.135802,3.626598,1
6.909158,207.938766,25995.494062,8.226453,386.820364,481.166716,14.561015,34.233773,4.482023,1
8.318344,257.032189,21297.267368,6.959134,341.644817,533.23165,14.088311,73.327917,4.599205,1
7.555548,220.168932,32883.425972,6.897398,333.237621,356.510245,15.7618,69.168673,4.553425,1
7.479855,219.296066,17829.588443,6.087321,341.084916,345.508522,15.190762,60.046699,3.457776,1
6.208411,159.747758,20649.417136,6.823619,333.775777,471.334722,12.420991,80.217551,3.150725,1
7.234607,229.814226,13700.271445,5.660636,280.106,388.906589,14.031542,55.489208,3.594689,1
8.813019,227.274905,12484.410253,8.849176,373.349894,526.915614,9.990819,71.588586,2.909283,1
6.697694,179.749581,36222.174855,7.031627,333.153895,371.110491,12.994321,67.59478,4.304062,1
5.923678,221.053115,36714.59106,9.062006,410.258476,399.458667,14.133352,82.476563,4.74419,1
8.545759,161.366984,33073.378449,8.136591,305.881388,329.511129,15.509262,53.934384,4.013947,1
7.157704,185.27113,27370.609934,6.692575,353.229955,418.708113,13.243255,81.936023,3.952657,1
7.780604,207.051943,27051.621975,6.211163,291.687749,514.437652,11.289111,56.281938,3.95747,1
7.097714,211.825775,18425.356898,6.492419,331.087291,391.961078,11.625791,68.612672,3.713858,1
6.581723,199.577971,25921.473903,9.019954,326.417842,518.701816,17.690373,59.588307,5.040638,1
7.424225,215.603239,38152.081555,6.999343,328.105006,279.163977,12.983265,70.508246,4.50001,1
4.949527,175.360514,30358.678772,6.460106,363.695743,421.371162,17.033768,69.538919,3.864922,1
8.079613,190.227725,15189.189986,5.093818,325.243001,406.56021,19.70391,74.425164,2.557986,1
7.118386,164.263792,14219.986824,7.403227,358.578816,482.999264,10.345002,86.67704,4.048278,1
7.057907,144.518923,29299.593052,6.794857,341.219656,426.240055,9.079549,80.990573,3.784753,1
7.593455,209.674122,23502.622798,5.804392,307.257122,463.632403,8.293834,40.377774,3.22983,1
7.569979,181.203092,14501.161298,6.808806,310.014914,319.079427,16.698176,67.579064,4.69637,1
5.312871,193.737836,14951.522945,9.437418,394.233862,449.863302,10.609387,56.868446,4.524566,1
5.648866,196.894052,24824.330031,5.129386,381.409668,319.648163,13.78896,52.763526,3.837579,1
7.0692,187.316719,20138.58657,5.92866,360.065684,507.437449,13.596657,63.724324,4.664957,1
5.365442,162.307205,19761.691941,8.308545,398.754195,375.884789,15.528118,67.282817,5.261427,1
8.501534,192.497961,30643.33049,4.867109,333.775777,295.623384,13.705173,70.552465,4.577108,1
7.03474,198.49386,18543.421984,5.856518,281.030268,408.600962,12.878456,68.795762,4.242174,1
6.978573,235.821806,22634.925306,7.026889,341.829875,372.526659,16.890461,48.952695,3.782542,1
5.594852,179.164638,22651.986578,6.470162,331.074796,435.230931,17.23651,89.531428,3.59464,1
8.272161,210.726327,20049.886753,7.072315,255.933635,486.369998,13.620741,74.854362,3.944419,1
6.818683,220.319908,15145.316727,7.24823,325.945754,432.909976,13.033745,58.834091,4.270494,1
7.23893,173.541789,13699.10424,9.013635,425.919582,519.69358,13.108416,97.900575,3.360001,1
7.042777,221.08657,22437.249104,8.293777,333.775777,460.543702,10.677675,76.120849,4.284681,1
6.933454,207.663986,15449.02254,7.410662,340.467668,423.218722,18.502967,65.469818,4.808534,1
7.278183,224.06607,13722.296298,5.140117,290.883018,389.748682,17.872117,59.023848,4.500282,1
8.38073,202.396874,30726.897661,6.834261,308.868552,306.052016,8.708485,63.982704,3.678194,1
7.009013,199.94049,31455.486933,7.846519,298.689083,424.148535,19.691567,66.410697,3.335246,1
8.149203,192.745811,28330.791394,6.135986,302.804468,530.594995,16.61557,74.636451,4.546467,1
8.167637,240.076134,21969.100298,8.049044,344.40745,380.661185,9.480616,67.218487,4.831457,1
6.135323,203.975506,31412.795046,4.896642,316.134194,447.330379,16.375323,65.816416,4.006876,1
7.080795,167.954539,26209.629811,7.462942,421.938909,374.747703,14.503102,70.704453,4.994552,1
9.12872,223.756662,10184.665282,7.120804,324.846784,572.255809,12.605317,79.015463,3.551518,1
7.108504,191.042236,41217.642715,6.395653,318.801857,352.537862,12.764495,67.88838,3.831548,1
7.661884,201.670807,7731.171571,6.466742,389.71602,452.512512,19.809392,60.804092,3.704384,1
8.224615,215.0528,13115.096714,5.697196,288.221826,386.021826,18.427839,65.661484,4.325514,1
6.215546,189.269598,26143.033456,8.773187,331.660314,440.368767,14.71543,66.103467,3.08115,1
6.142793,222.702694,16271.203192,7.271701,338.200608,388.67306,7.998803,84.0356,4.489461,1
5.923934,198.606397,19233.954431,9.10686,357.709467,456.550397,10.093819,61.517425,3.960452,1
6.833697,179.467875,14031.078659,7.461245,354.564453,479.057851,14.170758,76.149637,4.262007,1
7.464867,198.563724,35259.439509,7.332979,321.161813,402.370293,18.344455,65.599636,4.245032,1
6.89764,192.686961,22472.118035,7.15958,329.294513,523.382398,12.370526,56.315369,5.118897,1
5.91452,163.519194,39615.428851,7.022326,332.883955,411.703784,12.814393,80.964588,4.072506,1
8.401496,227.865616,29707.941408,6.112873,273.840626,497.483122,15.736262,62.136259,4.342738,1
8.219539,189.376417,24005.915339,7.624682,342.767331,442.170128,13.287834,102.516465,3.578221,1
9.194758,233.169971,38916.16766,7.268308,349.183471,428.236495,16.245831,61.487274,3.404282,1
7.04089,217.386061,12305.41891,8.861089,361.540633,400.862891,16.017678,89.410769,3.83823,1
5.118116,250.302108,13396.159327,7.11947,358.860787,390.526801,14.396841,68.294492,3.359726,1
6.681647,180.883651,14006.133152,8.595121,362.430367,337.938713,15.437267,69.316386,4.093092,1
8.316127,210.479738,32215.30544,7.066159,335.932247,466.292793,14.030061,72.235894,4.401219,1
7.096389,186.73871,29778.384509,6.38054,334.766257,351.198225,17.908853,37.703167,3.982424,1
7.765989,191.704206,26946.558407,6.957796,316.313546,546.605435,14.576542,66.422374,3.939251,1
8.470244,225.44281,14746.345571,7.479386,310.306833,345.067685,13.917808,57.081431,4.729155,1
6.158448,206.249939,31324.943056,6.883831,329.633786,523.295895,10.962823,73.29815,3.325694,1
7.123863,237.08819,15753.375271,8.109564,320.527489,486.539783,14.546651,83.88494,3.248402,1
6.657622,195.339098,16829.193143,6.919911,334.049423,467.328585,16.62262,60.870248,3.947527,1
7.721038,235.759314,23499.049007,5.722695,281.318921,476.927696,14.006475,55.570807,3.207557,1
7.843499,175.042215,21356.026677,6.127123,333.775777,430.736226,12.1757,63.323469,2.632835,1
6.900534,184.675131,40594.015493,4.644765,282.012118,326.298973,16.230056,72.2608,3.082059,1
6.575199,168.829032,12205.413361,7.664369,374.224994,387.941139,15.988092,65.963435,3.216252,1
7.597134,151.892095,15071.051434,7.735699,382.655307,437.449213,15.594414,95.132797,4.415912,1
6.198684,189.430914,25856.974186,5.862663,323.819435,480.325095,15.320595,75.931783,4.419915,1
7.361617,194.364571,27408.462937,7.647625,264.979319,493.243169,12.389757,73.5796,4.371261,1
8.835527,132.251124,17446.668246,7.426334,317.070493,414.164744,17.33831,76.883716,4.754154,1
5.470995,192.094648,19006.524954,7.414958,409.291502,385.25828,17.069956,59.73844,3.512085,1
8.845508,198.847411,18060.30107,7.763461,333.775777,585.071273,10.517663,58.870672,4.280622,1
7.889332,194.098851,16660.358309,6.16465,355.408613,381.557999,7.989717,47.367317,3.048879,1
6.997902,246.516771,26801.352595,7.056963,335.848283,380.152183,13.226124,72.229338,3.200817,1
7.354434,159.22528,29940.551244,6.962647,273.300023,336.640413,14.493526,81.705019,3.79809,1
6.650244,196.178731,18496.99494,6.569699,358.155431,366.89095,13.549702,61.660313,3.550063,1
5.514305,204.702626,21065.725258,8.957021,367.149322,452.210716,14.718014,62.07118,3.75949,1
7.175578,208.634231,17194.881607,7.045765,385.051112,345.184837,15.750491,67.981666,4.332791,1
8.909105,262.980424,24480.215056,7.359462,325.349561,487.969667,12.088997,57.898453,5.476563,1
7.164642,190.396758,17178.607508,6.427354,332.491299,366.893877,13.319936,69.243184,4.087725,1
6.689584,184.750411,27406.102428,9.30423,355.81813,586.266902,12.326831,75.943889,4.486249,1
8.913039,224.212565,15381.160224,6.025416,327.762564,536.086506,18.130284,59.99288,4.637203,1
7.977607,234.034127,9905.95352,6.853382,373.73785,530.980427,12.72856,65.170123,4.142566,1
5.437719,183.347299,9895.797627,10.381764,333.775777,399.513791,12.548346,62.833561,4.940071,1
6.302095,216.684624,16667.923828,6.507613,329.111352,396.367989,21.320032,82.690341,4.122561,1
6.382095,221.457867,17605.553993,9.164977,305.119907,490.311868,11.349772,67.234593,3.451553,1
7.383485,216.628757,12871.815382,6.05382,327.512579,403.672775,16.88956,67.88325,3.899343,1
7.155517,201.779194,24423.597026,5.703497,334.38795,316.041614,10.215743,75.211533,4.817258,1
7.146307,188.859329,16130.959894,6.108015,320.140779,437.441193,12.024116,43.7543,4.097111,1
5.683818,219.353447,6467.112981,6.345374,365.068445,455.59644,15.100702,88.983481,3.906853,1
7.044796,244.498741,25475.583051,6.255211,332.257378,403.21937,16.241451,69.985063,3.239174,1
7.338686,180.056197,8791.985753,6.488726,361.114216,384.220189,10.028728,83.540631,3.596915,1
7.396564,233.244889,16808.575436,6.174774,325.10609,509.807573,17.354137,46.746173,3.230145,1
6.547281,180.715157,17972.544672,6.463552,372.534681,336.632867,9.375686,56.261489,3.387709,1
6.699477,165.818471,30705.484592,7.746133,326.110267,399.169533,7.891694,66.119307,3.909467,1
6.842979,215.568099,10186.682498,6.653716,372.934067,409.728447,12.271168,77.020632,3.444833,1
6.545662,146.855248,9935.396417,6.912691,359.955086,518.90863,15.843468,45.289992,3.720825,1
7.30646,240.762675,22015.54492,5.028474,360.958062,344.923137,15.472606,72.288576,4.049964,1
7.764649,259.462998,51068.277892,7.80497,307.593415,419.976663,15.023485,71.047486,3.537334,1
6.956348,229.244297,15349.393329,6.484456,333.775777,393.906976,17.704103,56.012678,3.995394,1
6.763271,194.112411,34562.163401,6.880943,332.835409,305.09091,17.093386,55.232775,3.162708,1
4.417869,203.784471,34297.801126,6.750745,362.27011,494.87422,12.627619,62.941222,4.343523,1
8.48074,211.40392,15920.485514,7.684835,309.268401,405.831407,13.946162,58.71612,4.040981,1
7.1022,180.376354,27184.973279,9.851284,331.974455,346.322449,13.587894,65.569384,4.627116,1
7.748012,187.330762,16684.453925,7.92004,360.994235,415.522651,13.6975,61.251935,3.741802,1
6.182089,223.46944,20004.955729,6.965717,350.624897,330.203454,13.920055,80.824045,3.299257,1
7.873429,195.874172,13256.511759,8.909889,335.125304,391.095519,9.240643,69.796523,4.174323,1
8.263535,211.453573,35010.167459,7.667425,349.860071,385.139383,15.883792,70.30088,4.763638,1
7.02858,230.337071,29279.87316,5.914382,313.802567,436.740042,6.22634,74.239535,4.360408,1
7.18014,216.547164,25197.823381,7.413751,345.140441,559.005238,16.282986,99.747136,3.661122,1
9.692091,130.14408,38734.386764,7.484784,386.373497,613.566267,10.184472,49.137346,4.437489,1
6.879059,189.599375,23079.896172,7.870249,318.891586,350.757828,12.61889,58.306743,4.15377,1
5.811494,212.726199,22029.917581,8.852702,310.154923,332.812711,11.704825,61.24748,4.138688,1
8.030995,188.934062,9154.485864,8.853977,345.956556,380.888092,13.302088,62.253007,4.05319,1
7.222192,188.312987,20288.773941,6.970102,325.629649,306.352151,12.61735,58.396811,4.492486,1
6.496578,145.094937,9727.057216,9.843524,397.447709,396.900745,11.805682,27.43631,3.943413,1
7.893523,158.82113,10814.722549,8.940191,317.880041,427.800308,18.719135,67.441836,3.83729,1
5.649126,214.418864,806.417995,7.647598,362.702527,604.959102,14.909931,61.199279,3.65433,1
5.725407,280.725001,54556.648729,6.610832,333.775777,407.878628,13.687834,86.178382,4.798061,1
7.471187,225.179306,6761.418442,6.450141,364.978783,442.272633,12.082734,70.637572,3.7465,1
8.098462,177.524269,29009.43683,7.750442,334.021007,401.743992,15.954296,65.129195,3.491783,1
7.687198,148.180172,33785.042274,9.558308,318.350404,494.286806,12.781263,71.105026,3.381235,1
6.65744,197.413978,6580.082799,6.203831,348.339873,462.696052,18.367306,83.449003,3.945189,1
5.647929,180.443541,12161.62343,7.024156,390.369468,396.776029,12.004283,57.42451,4.48554,1
7.781461,189.096118,21628.187524,7.13743,332.082296,392.903144,13.764533,70.089586,2.808551,1
6.747799,207.509896,18320.0075,6.071,306.913648,476.021717,14.265671,63.050869,4.252756,1
8.063623,185.147223,19637.526602,7.587881,325.028886,379.978413,17.770394,48.311324,3.766842,1
5.736424,151.399282,41452.672842,8.22979,350.424334,418.586288,10.829465,66.488602,3.054573,1
8.085333,140.733723,23862.319223,8.689388,322.245098,468.730488,14.944265,62.712007,2.926722,1
6.020131,236.027446,1203.480867,6.285504,376.421688,469.568737,11.65891,72.282731,3.724236,1
8.652205,213.142309,53409.515943,6.840736,313.989698,397.049426,13.193684,101.065657,4.284112,1
8.346388,169.675926,24399.156084,7.627555,330.710629,404.875802,18.917067,78.477455,3.493393,1
8.605885,175.097392,26457.244625,6.906151,303.682295,542.754184,13.83314,47.886473,4.270433,1
8.02003,168.411122,15113.465603,7.795724,320.38904,416.27995,18.871592,105.386773,4.328815,1
7.680826,150.363794,28812.414171,8.81732,346.816389,526.311238,11.621662,79.67626,3.521464,1
5.94141,199.655027,12134.052704,7.434454,356.432684,479.736772,12.623483,70.052008,3.204045,1
6.284254,192.35242,11598.727283,6.875826,387.389557,404.419195,14.704869,85.384772,3.432362,1
6.907424,187.19988,24375.308941,8.8336,308.974794,476.057496,23.080902,68.719036,3.772663,1
8.921359,206.498158,16496.075205,6.589806,328.740573,492.601124,13.976473,68.184765,3.38064,1
7.009097,180.275944,14167.029401,7.906761,337.727507,319.810596,17.804407,63.696408,4.092326,1
7.198242,193.032352,32310.102863,7.246709,296.253626,581.09257,16.158292,61.341835,4.349472,1
6.022266,186.643477,44368.158863,5.100214,399.179225,353.577985,14.925884,66.511272,5.010952,1
7.02853,191.993097,34600.082767,6.517196,351.557596,538.294269,12.181281,67.841123,4.506368,1
6.990812,184.707751,31154.344757,8.351742,355.234245,385.933142,17.624967,81.00775,3.229962,1
7.625255,165.177778,32043.226769,7.45702,278.348249,342.036291,14.628191,61.177171,4.868166,1
7.482583,200.407414,34357.366259,6.566639,232.720292,429.62817,12.501417,90.733202,3.626942,1
6.664551,169.441229,21001.298418,7.700508,346.907393,323.806889,11.821574,60.648637,3.688037,1
9.395714,145.982277,16550.609854,7.95208,310.800248,494.776194,12.541281,66.833374,4.28198,1
8.249865,124.791121,7778.654861,9.663472,307.905132,511.779534,15.134228,74.524151,4.143248,1
7.341309,210.944707,10369.156835,6.326482,360.142168,414.300217,13.506883,71.673527,3.192169,1
6.808737,199.396728,16838.124262,8.419742,333.775777,543.685935,16.281062,46.12091,4.702533,1
7.096213,197.393882,32754.123859,6.306244,314.590191,509.799293,14.870754,59.497062,4.231784,1
7.118167,154.924362,14466.110155,7.78583,317.322851,368.985102,13.586032,101.141482,4.278993,1
6.328954,237.838356,16663.718437,6.462951,345.808301,435.82563,11.280108,67.573438,3.045482,1
7.145668,163.493977,24752.925263,5.037221,342.289675,480.873621,14.781668,74.541667,2.104853,1
6.591702,156.341117,14901.324887,9.823841,390.819342,458.606454,17.793838,66.277399,3.8067,1
8.942006,172.631279,28333.588382,6.636507,319.229253,516.617878,15.274321,50.673352,3.770605,1
7.12302,185.969905,35010.030734,7.508157,329.948614,496.995703,8.444661,33.976265,3.673296,1
9.679084,186.154054,49173.803106,8.98114,333.186264,365.495139,17.574162,78.091532,3.896678,1
7.037878,148.825463,21947.400353,7.989453,352.979661,529.201504,16.407015,84.644942,4.167923,1
5.739502,175.966901,22928.212445,7.321536,345.222674,472.807047,12.76173,79.709328,4.323666,1
7.074597,196.670865,8711.248576,7.267704,339.84462,409.800738,11.358855,67.168657,3.431935,1
6.230136,216.194076,15247.068872,6.254749,318.022759,537.778655,19.15672,59.220509,3.843872,1
7.2817,178.367224,30922.186282,5.984362,333.775777,466.490329,15.469778,64.150444,5.254739,1
7.860929,167.122464,24328.534915,8.6708,295.235539,469.961246,15.512655,84.074553,3.873466,1
6.208433,208.242217,4141.909702,8.926118,376.291458,353.175042,15.350316,70.500298,5.295931,1
7.673471,196.940868,32000.523716,7.63927,302.311948,520.490422,14.261531,41.855767,4.128875,1
7.080795,207.221888,27052.324332,6.706655,343.343372,409.114665,13.571268,65.813508,4.236876,1
7.535796,180.62861,19994.862136,7.447696,317.746848,521.379397,14.762166,49.901363,3.396128,1
7.431992,209.04924,38909.569643,7.130205,345.10183,397.173609,8.937277,61.458552,5.336382,1
7.853504,172.726162,40738.905681,4.312316,305.720604,398.386715,13.941105,66.24932,4.086077,1
6.542452,165.448805,22204.542961,9.049809,330.398807,431.361965,14.430893,62.27747,4.230651,1
7.377506,138.552517,23990.977283,8.181316,338.672046,404.584791,12.013416,74.194877,4.034792,1
6.878381,204.218977,7712.671894,5.996509,360.638247,431.49215,19.325841,62.70313,3.460171,1
6.56815,233.486203,15542.789583,7.807241,343.879045,386.287094,16.343615,64.587067,4.878391,1
9.251629,148.12861,39511.884403,8.570479,322.009491,437.527223,9.645924,63.459084,4.606802,1
6.126573,179.833373,22877.636834,6.932386,335.334093,447.06963,15.263141,43.559994,4.760269,1
5.313414,199.170335,15683.385245,7.251934,310.442665,416.64071,14.473144,73.381572,3.737495,1
7.491618,197.924285,35270.660412,5.745379,307.151429,442.07097,12.342853,58.149452,4.114455,1
6.821497,209.176771,27573.452395,6.476093,328.113999,469.956132,16.008184,79.380182,3.808432,1
6.047205,185.413455,12148.707859,8.501439,345.971617,339.583262,13.091007,42.905854,1.962004,1
8.561272,241.585038,28157.229506,6.149874,331.382446,553.774713,9.737921,55.763681,2.785672,1
5.946642,262.765955,19936.582609,4.791536,355.90117,401.414485,14.136214,51.754615,4.69413,1
5.250852,277.550873,43746.614066,7.729644,317.483431,376.111345,16.433724,65.309238,4.582167,1
7.273329,218.382987,14818.447999,7.386642,355.520859,334.122646,10.459919,42.22055,3.174805,1
7.572258,140.79341,28426.791122,7.864771,316.280474,500.189033,14.774941,77.910444,4.392131,1
5.846346,273.683691,2918.714335,4.513052,379.283959,413.116559,7.088094,57.581624,4.799813,1
6.612653,198.241386,31999.42615,7.531699,320.851557,305.112526,11.436619,53.481596,4.28957,1
7.703612,124.283196,16255.521293,7.918943,339.803703,540.867237,18.506855,75.132958,3.726621,1
5.550744,242.002881,33206.935506,5.152177,333.775777,489.109196,11.142103,71.739541,4.46157,1
6.173971,240.732926,24233.845148,5.769122,333.775777,358.972296,9.01728,62.835485,3.045964,1
7.040596,217.551002,18090.509971,6.440714,333.775777,375.915706,14.48672,63.061697,3.777848,1
7.659775,210.167129,31090.063503,7.877569,333.775777,536.326654,11.721774,82.761632,3.499899,1
7.390825,176.12747,21026.484975,8.445087,373.902499,394.985227,10.92896,65.407863,3.18691,1
5.825192,218.348741,52245.732418,7.653728,333.775777,446.510281,15.549561,87.637734,3.892847,1
7.536834,193.713909,32000.764479,7.636613,305.976424,563.657936,16.138299,42.370463,4.185564,1
7.387389,199.790852,22104.794793,9.247471,338.651859,377.062899,13.126546,76.832686,4.297305,1
6.881199,188.588176,10753.220876,6.826846,338.116728,387.67552,14.727451,91.814252,4.079324,1
8.410382,147.772425,23553.004231,9.371546,291.406337,322.652161,16.180257,93.213165,4.33997,1
7.080795,185.6887,28212.913084,7.54264,367.888028,420.464071,18.43381,100.295899,4.047562,1
7.180812,198.590714,13735.802129,7.104112,320.839367,424.329715,12.004405,64.090538,2.95649,1
10.451376,144.324192,32869.069579,6.666026,316.147065,307.908323,16.985114,67.741023,4.509892,1
6.096251,202.0401,19421.737986,6.564175,345.543637,410.863724,8.482677,58.843552,4.021955,1
5.82575,210.358123,11304.348982,8.094594,341.076641,340.652762,17.986511,51.941307,3.988517,1
5.522165,214.278496,47594.25266,6.520231,333.775777,572.431357,15.100774,51.423999,3.766515,1
7.138848,205.469821,22676.456611,6.090758,316.791259,396.967196,17.144399,78.164329,4.246127,1
7.489408,169.829185,27058.134028,7.421318,319.82285,451.922642,15.497075,60.037619,4.377255,1
9.275437,202.466426,15867.482718,7.132585,305.641557,387.275485,11.062223,61.369589,4.071748,1
6.194144,202.709713,23460.461288,7.719944,329.982747,399.55584,18.570436,64.449337,4.13984,1
5.702875,227.493277,9090.462552,8.107883,316.125111,356.513794,10.953243,55.182521,3.86151,1
5.437653,240.201632,25716.781067,5.466525,375.842957,474.665626,13.899505,55.029967,3.871159,1
4.598418,243.027362,8800.32166,5.744192,335.639407,390.629621,16.523513,51.916078,4.828356,1
5.931967,205.611602,17739.64747,6.564786,380.994656,478.312011,15.693146,66.976984,2.946805,1
6.479487,172.780055,24710.542423,4.961171,359.688799,555.023459,15.512599,45.922839,2.666813,1
10.627392,198.171278,28935.13084,7.059015,306.435934,380.994569,17.888633,55.08169,4.1187,1
7.949477,196.612727,31582.825651,7.890497,332.612815,344.41683,14.517229,58.384766,4.474593,1
7.588926,217.620824,18618.470275,7.036521,337.312514,343.068713,10.331136,80.854045,5.360333,1
10.30478,214.543974,29556.067662,7.295635,299.00705,361.503371,14.362499,74.491921,4.407726,1
6.127633,147.618856,41955.063938,7.810908,364.613534,519.089417,16.313401,63.604671,3.516918,1
6.648055,226.955264,11286.985766,7.529754,357.674566,369.862622,14.107011,67.082453,3.829082,1
6.85719,216.400644,13369.203518,5.582986,333.775777,354.71749,17.313795,58.189048,4.423203,1
7.332417,191.571739,22535.590629,9.057031,296.486388,363.880973,10.570023,65.18233,4.886297,1
7.126641,153.910789,17452.363043,6.660349,342.504958,411.414039,13.544119,64.627411,4.906006,1
5.450543,180.721297,5120.845862,7.616599,340.699284,325.270336,11.090323,35.652436,4.094102,1
3.176906,155.589744,39044.589503,6.058628,307.852579,455.030193,13.24387,62.058203,3.526374,1
6.797097,217.216212,19007.894866,5.745114,336.142467,316.563466,17.357783,75.518371,4.225518,1
7.00539,227.813185,9778.409376,6.962561,286.286592,370.247954,11.921441,65.541946,4.88405,1
8.425488,211.1954,16529.904276,6.258388,323.138868,467.746551,12.216651,91.372326,2.755847,1
9.356768,159.085269,9030.970942,8.561756,335.794864,419.014843,9.832946,81.32144,3.841768,1
4.528535,202.267841,24856.628029,5.778195,351.90177,369.753614,13.11913,67.560946,4.750508,1
7.578086,235.742472,28447.463443,4.91327,287.378627,458.318334,14.156661,46.483588,4.598257,1
6.860944,221.122294,24832.306066,6.204384,328.706817,491.025761,11.962731,54.988811,3.844215,1
5.173144,210.676983,20547.60507,3.405265,341.277345,413.721544,16.868859,68.878171,3.048977,1
7.920137,139.445151,27724.653319,7.141516,319.023073,440.274908,15.382836,60.937978,3.396541,1
7.689817,183.998008,14636.959243,9.595679,387.150181,459.62957,14.258395,46.426893,4.870474,1
7.611214,215.080819,15940.092641,8.141697,309.796663,394.274217,11.924876,60.150658,3.719978,1
7.502877,207.892287,17170.32638,7.831976,340.462251,363.662633,16.756435,36.151687,4.769875,1
10.854804,123.304217,37223.986145,7.789689,259.031104,412.274011,13.719479,50.616439,4.106748,1
7.072947,185.870042,26180.713677,7.705474,334.283688,386.981798,15.224653,62.480361,4.866046,1
5.401058,187.254586,47590.100419,7.713477,336.818905,546.206626,13.884818,60.567567,4.236452,1
7.329947,180.432014,17383.132418,8.772747,333.775777,393.237409,14.695074,56.978355,2.991699,1
6.683312,180.345483,33143.598253,6.414883,359.036803,396.522411,8.110251,67.652035,3.816765,1
5.612805,192.127639,11993.24396,7.671151,340.581009,392.654826,12.097671,72.225118,4.032087,1
8.024579,204.357968,17407.471045,7.497857,292.299734,328.378195,14.462429,83.574716,2.654891,1
